#------------------------------------------------------------------------------
#$Date: 2020-02-05 07:55:53 +0200 (Wed, 05 Feb 2020) $
#$Revision: 247895 $
#$URL: file:///home/coder/svn-repositories/cod/cif/1/55/65/1556578.cif $
#------------------------------------------------------------------------------
#
# This file is available in the Crystallography Open Database (COD),
# http://www.crystallography.net/
#
# All data on this site have been placed in the public domain by the
# contributors.
#
data_1556578
loop_
_publ_author_name
'Broadhurst, Edward T.'
'Xu, Hongyi'
'Clabbers, Max T. B.'
'Lightowler, Molly'
'Nudelman, Fabio'
'Zou, Xiaodong'
'Parsons, Simon'
_publ_section_title
;
 Polymorph evolution during crystal growth studied by 3D electron
 diffraction
;
_journal_issue                   1
_journal_name_full               IUCrJ
_journal_page_first              5
_journal_page_last               9
_journal_paper_doi               10.1107/S2052252519016105
_journal_volume                  7
_journal_year                    2020
_chemical_formula_moiety         C2H5NO2
_chemical_formula_sum            'C2 H5 N O2'
_chemical_formula_weight         75.07
_chemical_name_common            beta-glycine
_space_group_crystal_system      monoclinic
_space_group_IT_number           4
_space_group_name_Hall           'P 2yb'
_space_group_name_H-M_alt        'P 1 21 1'
_atom_sites_solution_hydrogens   difmap
_atom_sites_solution_primary     'Dual space'
_audit_creation_method           SHELXL-2018/3
_cell_angle_alpha                90
_cell_angle_beta                 112.86(3)
_cell_angle_gamma                90
_cell_formula_units_Z            2
_cell_length_a                   5.3110(11)
_cell_length_b                   6.4540(13)
_cell_length_c                   5.6940(11)
_cell_measurement_temperature    103(2)
_cell_volume                     179.84(7)
_computing_cell_refinement       REDp
_computing_data_reduction        XDS
_computing_structure_refinement  'SHELXL-2018/3 (Sheldrick, 2018)'
_computing_structure_solution    'SHELXT 2018/2 (Sheldrick, 2018)'
_diffrn_ambient_temperature      103(2)
_diffrn_measured_fraction_theta_full 0.955
_diffrn_measured_fraction_theta_max 0.959
_diffrn_measurement_method       'Phi scan'
_diffrn_radiation_type           electrons
_diffrn_radiation_wavelength     0.02508
_diffrn_reflns_av_R_equivalents  0.2086
_diffrn_reflns_av_unetI/netI     0.1954
_diffrn_reflns_Laue_measured_fraction_full 0.955
_diffrn_reflns_Laue_measured_fraction_max 0.959
_diffrn_reflns_limit_h_max       7
_diffrn_reflns_limit_h_min       -7
_diffrn_reflns_limit_k_max       8
_diffrn_reflns_limit_k_min       -8
_diffrn_reflns_limit_l_max       7
_diffrn_reflns_limit_l_min       -7
_diffrn_reflns_number            2516
_diffrn_reflns_point_group_measured_fraction_full 0.968
_diffrn_reflns_point_group_measured_fraction_max 0.961
_diffrn_reflns_theta_full        0.862
_diffrn_reflns_theta_max         0.957
_diffrn_reflns_theta_min         0.137
_diffrn_source
;? 
JEOL JEM-2100 LaB6 transmission electron microscope
;
_exptl_absorpt_coefficient_mu    0.000
_exptl_crystal_colour            colourless
_exptl_crystal_density_diffrn    1.386
_exptl_crystal_description       shard
_exptl_crystal_F_000             27
_refine_diff_density_max         0.215
_refine_diff_density_min         -0.293
_refine_diff_density_rms         0.080
_refine_ls_abs_structure_details
;
 All f" are zero, so absolute structure could not be determined
;
_refine_ls_extinction_method     none
_refine_ls_goodness_of_fit_ref   1.180
_refine_ls_hydrogen_treatment    idealised+riding
_refine_ls_matrix_type           full
_refine_ls_number_parameters     54
_refine_ls_number_reflns         859
_refine_ls_number_restraints     1
_refine_ls_restrained_S_all      1.179
_refine_ls_R_factor_all          0.1379
_refine_ls_R_factor_gt           0.1276
_refine_ls_shift/su_max          0.000
_refine_ls_shift/su_mean         0.000
_refine_ls_structure_factor_coef Fsqd
_refine_ls_weighting_details
'w=1/[\s^2^(Fo^2^)+(0.1642P)^2^] where P=(Fo^2^+2Fc^2^)/3'
_refine_ls_weighting_scheme      calc
_refine_ls_wR_factor_gt          0.2894
_refine_ls_wR_factor_ref         0.2964
_reflns_Friedel_coverage         0.843
_reflns_Friedel_fraction_full    0.983
_reflns_Friedel_fraction_max     0.963
_reflns_number_gt                745
_reflns_number_total             859
_reflns_threshold_expression     'I > 2\s(I)'
_cod_data_source_file            yc5021.cif
_cod_data_source_block           beta
_cod_depositor_comments
'Adding full bibliography for 1556577--1556579.cif.'
_cod_original_sg_symbol_H-M      'P 21'
_cod_database_code               1556578
_shelx_shelxl_version_number     2018/3
_shelx_space_group_comment
;
The symmetry employed for this shelxl refinement is uniquely defined
by the following loop, which should always be used as a source of
symmetry information in preference to the above space-group names.
They are only intended as comments.
;
_shelx_res_file
;
TITL Beta glycine in P2(1) solved Shelxt
    BETA.res
    created by SHELXL-2018/3 at 07:59:49 on 06-Aug-2019
CELL 0.02508 5.311 6.454 5.694 90 112.863 90
ZERR 2 0.0011 0.0013 0.0011 0 0.03 0
LATT -1
SYMM -X,0.5+Y,-Z
SFAC  C 0.731 36.995 1.195 11.297 0.456 2.814 0.125 0.346 0 0 0 0 0.77 12.011
SFAC  H 0.375 15.495 0.141 4.126 0.022 0.025 -0.101 46.884 0 0 0 0 0.32 1.008
SFAC  N 0.572 28.846 1.043 9.054 0.465 2.421 0.131 0.317 0 0 0 0 0.75 14.007
SFAC  O 0.455 23.78 0.917 7.622 0.472 2.144 0.138 0.296 0 0 0 0 0.73 15.999
UNIT 4 10 2 4
TEMP -170
L.S. 20
FMAP 2
PLAN 10
ACTA
LIST 4
WGHT    0.164200
FVAR      64.43245
N1    3   -0.148262    0.434608    0.235859    11.00000    0.00864    0.01074 =
         0.01335   -0.00397    0.00678   -0.00223
AFIX 138
H1    2   -0.155003    0.468355    0.032484    11.00000    0.01041
H2    2   -0.169277    0.256966    0.259893    11.00000    0.01964
H3    2    0.058885    0.492319    0.387708    11.00000    0.05244
AFIX   0
C1    1   -0.384622    0.548158    0.272080    11.00000    0.01119    0.01186 =
         0.01576    0.00179    0.00715    0.00117
AFIX  24
H4    2   -0.594252    0.473999    0.135185    11.00000    0.06565
H5    2   -0.384018    0.724051    0.213227    11.00000    0.02075
AFIX   0
C2    1   -0.364244    0.536691    0.559551    11.00000    0.00966    0.01186 =
         0.01281    0.00035    0.00950   -0.00044
O1    4   -0.119458    0.509509    0.741903    11.00000    0.00426    0.02471 =
         0.00990    0.00313    0.00381    0.00015
O2    4   -0.590964    0.564417    0.598984    11.00000    0.00628    0.01464 =
         0.02011   -0.00461    0.00836   -0.00138
HKLF 4




REM  Beta glycine in P2(1) solved Shelxt
REM wR2 = 0.296444, GooF = S = 1.17978, Restrained GooF = 1.17905 for all data
REM R1 = 0.127617 for 745 Fo > 4sig(Fo) and 0.137915 for all 859 data
REM 54 parameters refined using 1 restraints

END

WGHT      0.1647      0.0000

REM Highest difference peak  0.215,  deepest hole -0.293,  1-sigma level  0.080
Q1    1   0.2177  0.3515  0.2986  11.00000  0.05    0.21
Q2    1  -0.2898  0.9087  0.2096  11.00000  0.05    0.17
Q3    1  -0.1625  0.3755  0.0141  11.00000  0.05    0.16
Q4    1  -0.7543  0.3026  0.0639  11.00000  0.05    0.16
Q5    1   0.0038  0.7093  0.1132  11.00000  0.05    0.16
Q6    1  -0.2326  0.8343  0.4317  11.00000  0.05    0.15
Q7    1  -0.2995  0.2003  0.2347  11.00000  0.05    0.15
Q8    1   0.0346  0.3623  0.1653  11.00000  0.05    0.14
Q9    1  -0.2505  0.2491 -0.0085  11.00000  0.05    0.14
Q10   1  -0.0361  0.2264  0.0529  11.00000  0.05    0.14
;
_shelx_res_checksum              25816
_shelx_hkl_file
;
   0   0   1  69972.  18689.   1
   0   0   2  86969.  23274.   1
   0   0  -2  70053.  18770.   1
   0   0   5  14945. 3331.04   1
   0   0  -5  11327. 2658.03   1
   0   0   6  19624. 4957.50   1
   0   0  -6  14091. 3705.78   1
   0  -1   1  58478.  15824.   1
   0  -1   1  49535.  16904.   1
   0   1  -1  35103.  12044.   1
   0  -1   2  81344.  17669.   1
   0  -1   2  77256.  26269.   1
   0  -1  -2  88264.  18984.   1
   0   1   2 104087.  22388.   1
   0   1  -2  79765.  27135.   1
   0  -1   3  40550.  16139.   1
   0  -1   3  57507.  11663.   1
   0  -1  -3  53622.  10761.   1
   0   1   3  63699.  12756.   1
   0   1  -3  35180.  14059.   1
   0   1  -3  52125.  10639.   1
   0  -1   4  15953. 3871.71   1
   0   1   4  17624. 4091.46   1
   0   1  -4  14302. 3564.95   1
   0   1  -4  17119. 4160.25   1
   0  -1   5 1938.08 815.459   1
   0  -2   0 167462.  44800.   1
   0  -2   0 403723.  88588.   1
   0  -2   0 999999. 460542.   1
   0   2   0 288102.  44759.   1
   0   2   0 823957. 379482.   1
   0   2   0 344395.  75556.   1
   0   2   0 172076.  45973.   1
   0  -2   1 115135.  31020.   1
   0  -2   1 120477.  18749.   1
   0  -2   1  87535.  29741.   1
   0  -2  -1 142978.  38138.   1
   0   2   1 111331.  29676.   1
   0   2  -1 134075.  20870.   1
   0   2  -1 106030.  28495.   1
   0   2  -1  83974.  28551.   1
   0  -2   2  32606. 7389.71   1
   0  -2   2  31097. 6297.04   1
   0   2  -2  28276. 5799.27   1
   0   2  -2  26540. 6025.89   1
   0  -2   3 2305.54 1293.40   1
   0  -2   3 2921.08 926.749   1
   0  -2  -3 4807.77 1025.49   1
   0   2   3 3639.41 822.743   1
   0   2  -3 2834.88 1532.58   1
   0   2  -3 6090.65 1566.98   1
   0  -2   4  17042. 4148.11   1
   0  -2   4  18276. 4488.06   1
   0  -2  -4  14148. 3276.40   1
   0   2   4  22550. 5176.04   1
   0   2  -4  17341. 4362.60   1
   0   2  -4  12295. 3053.82   1
   0  -2   5 2433.43 840.549   1
   0  -2   5 5232.69 1442.73   1
   0  -2  -5 5406.71 1236.34   1
   0   2   5 3061.51 733.306   1
   0   2  -5 3197.08 1103.60   1
   0   2  -5 1760.42 650.343   1
   0  -2   6 8765.67 2522.05   1
   0  -2  -6  10696. 2487.65   1
   0   2   6  10299. 2332.25   1
   0   2  -6 8753.53 2366.65   1
   0   2  -6 6681.50 1965.60   1
   0  -3   1  37612. 8470.25   1
   0  -3   1  34613. 6980.97   1
   0  -3   1  37216. 5511.93   1
   0  -3  -1  44395. 9732.89   1
   0  -3  -1  29199. 3508.29   1
   0   3   1  27151. 3263.86   1
   0   3   1  52529.  11477.   1
   0   3  -1  37924. 5625.25   1
   0   3  -1  33136. 6693.64   1
   0   3  -1  29850. 6750.30   1
   0   3  -1  25832. 3646.70   1
   0  -3   2  16459. 5766.89   1
   0  -3   2  35961.  14448.   1
   0  -3   2  22626. 4925.13   1
   0  -3  -2  21020. 4245.24   1
   0   3   2  19308. 3903.68   1
   0   3  -2  19450. 4229.05   1
   0   3  -2  43707.  17584.   1
   0   3  -2  21862. 7681.09   1
   0  -3   3  18511. 3498.18   1
   0  -3   3  17985. 5613.11   1
   0   3  -3  15257. 2928.37   1
   0   3  -3  16455. 5180.08   1
   0  -3   4  19021. 6592.47   1
   0  -3   4  15006. 6240.38   1
   0   3  -4  22287. 7697.28   1
   0   3  -4  13816. 5920.67   1
   0  -3   5 3829.62 1504.25   1
   0  -3   5 5228.65 1604.21   1
   0  -3  -5 5374.34 1269.12   1
   0   3   5 4933.22 1207.61   1
   0   3  -5 5734.51 1805.34   1
   0   3  -5 5957.10 2176.04   1
   0  -3   6 1518.01 583.569   1
   0  -3  -6  856.74 349.291   1
   0   3   6 1824.77 578.308   1
   0   3  -6  842.57 455.686   1
   0   3  -6  963.98 774.180   1
   0  -4   0 141360.  34771.   1
   0  -4   0  55686.  19276.   1
   0  -4   0  46985. 9753.13   1
   0  -4   0  62080. 6811.00   1
   0   4   0  42938. 4730.87   1
   0   4   0  57709.  11866.   1
   0   4   0  63416.  21983.   1
   0   4   0  73978.  18199.   1
   0  -4   1  37604. 7895.58   1
   0  -4   1  37224.  12918.   1
   0  -4  -1  48887. 9991.90   1
   0  -4  -1  36993.  12829.   1
   0   4   1  42371.  14698.   1
   0   4   1  48037. 5313.63   1
   0   4   1  50506.  10295.   1
   0   4  -1  32432.  11283.   1
   0   4  -1  40166. 8389.31   1
   0  -4   2  10692. 3340.75   1
   0  -4   2  14322. 2836.10   1
   0  -4   2  10668. 2152.97   1
   0  -4  -2  13889. 2481.18   1
   0   4   2 8356.93 1492.51   1
   0   4  -2  12979. 2569.40   1
   0   4  -2  13250. 2602.59   1
   0   4  -2  10554. 3327.39   1
   0  -4   3 2630.92 1245.65   1
   0  -4   3 5378.38 2873.33   1
   0   4  -3  652.77 448.401   1
   0   4  -3 3865.64 1660.46   1
   0   4  -3 7952.24 3729.66   1
   0  -4   4  10089. 3070.82   1
   0  -4   4 4390.93 1462.16   1
   0   4  -4 5884.25 1943.34   1
   0   4  -4 3941.32 1378.39   1
   0  -4   5 1351.68 817.887   1
   0  -4   5  231.44 545.932   1
   0   4  -5 2395.79 1159.04   1
   0   4  -5  187.09 510.724   1
   0  -4   6 2714.69 1139.62   1
   0  -4  -6 4212.87 966.005   1
   0   4  -6 4204.77 1566.57   1
   0   4  -6 4261.43 1447.19   1
   0  -5   1  12432. 3372.72   1
   0  -5   1  12254. 3638.60   1
   0  -5  -1  17815. 3399.43   1
   0  -5  -1  21028. 6212.05   1
   0  -5  -1  14905. 3785.91   1
   0   5   1  21934. 6475.10   1
   0   5   1  17058. 4265.48   1
   0   5   1  12339. 2404.69   1
   0   5  -1  19013. 5730.47   1
   0  -5   2 4953.46 2012.14   1
   0  -5   2 3869.68 1606.23   1
   0  -5   2  10563. 4860.38   1
   0  -5  -2  12974. 5216.51   1
   0   5   2 7316.87 2976.52   1
   0   5  -2 1697.69 990.286   1
   0   5  -2  13424. 5835.69   1
   0  -5   3  10170. 3084.58   1
   0  -5   3  14618. 4220.96   1
   0  -5   3 9376.76 2606.23   1
   0  -5  -3  10907. 2395.38   1
   0   5   3 9821.92 2169.97   1
   0   5  -3 8425.73 2357.75   1
   0   5  -3  17054. 4917.03   1
   0  -5   4 9036.82 3349.25   1
   0  -5   4 8146.49 2451.64   1
   0   5  -4 8522.86 2504.25   1
   0   5  -4 7681.09 2902.47   1
   0   5  -4  786.32 323.310   1
   0  -5   5 5491.70 1629.30   1
   0  -5   5 4087.41 1684.34   1
   0   5  -5 6608.65 1883.45   1
   0   5  -5 3191.01 1466.61   1
   0  -6   0  25326. 7405.90   1
   0  -6   0  33100. 7061.91   1
   0  -6   0  19150. 4544.71   1
   0  -6   0  21991. 3360.18   1
   0   6   0  19765. 4216.91   1
   0   6   0  17697. 2726.42   1
   0  -6   1 5791.17 1835.69   1
   0  -6   1 6778.63 1460.95   1
   0  -6   1  20433. 4860.38   1
   0  -6  -1  16006. 3416.83   1
   0  -6  -1  10822. 2789.96   1
   0   6   1  14095. 4293.80   1
   0   6   1  11303. 2855.12   1
   0   6  -1 7430.18 2303.92   1
   0   6  -1 7972.47 957.506   1
   0   6  -1 7818.69 1674.62   1
   0  -6   2  435.45 329.623   1
   0  -6   2  408.34 385.835   1
   0  -6  -2 1366.25 638.607   1
   0   6   2  184.14 166.936   1
   0   6   2  746.66 443.140   1
   0   6  -2  280.09 279.886   1
   0   6  -2  370.66 411.169   1
   0   6  -2 1127.88 211.655   1
   0  -6   3  783.49 644.678   1
   0  -6   3 1122.62 811.412   1
   0  -6   3  208.58 275.354   1
   0  -6  -3  351.36 346.054   1
   0   6   3  347.23 256.495   1
   0   6  -3  682.72 608.660   1
   0   6  -3  331.97 263.861   1
   0   6  -3  915.01 764.467   1
   0  -6   4  164.75 387.616   1
   0  -6   4   36.42 159.530   1
   0  -6   4 2045.32 1009.31   1
   0  -6  -4   89.36 174.504   1
   0   6   4  164.39 196.034   1
   0   6  -4  183.85 418.858   1
   0   6  -4 2073.65 1004.45   1
   0   6  -4   -1.27 199.838   1
   0  -6   5  564.14 570.619   1
   0  -6   5  884.66 669.364   1
   0   6  -5  771.75 630.109   1
   0   6  -5 1326.59 794.414   1
   0  -7   1 9425.33 2717.52   1
   0  -7   1 4225.01 1087.01   1
   0  -7   1 5779.03 645.487   1
   0  -7   1 4366.65 1069.61   1
   0  -7  -1  10947. 2756.78   1
   0  -7  -1 9898.82 2269.52   1
   0  -7  -1 4601.37 921.488   1
   0   7   1 5855.92 1474.71   1
   0   7   1 6600.56 1598.95   1
   0   7   1 5673.81 1084.18   1
   0   7   1 5366.24 1743.42   1
   0   7  -1 5629.29 623.229   1
   0   7  -1 5289.35 1271.14   1
   0   7  -1 5248.88 1333.47   1
   0  -7   2 3321.73 1481.18   1
   0  -7  -2 1922.30 919.465   1
   0  -7  -2 1242.41 573.856   1
   0   7   2 2084.98 895.993   1
   0   7   2 1477.94 411.574   1
   0   7   2  833.27 533.791   1
   0   7  -2 1719.14 727.640   1
   0   7  -2 1987.86 1175.23   1
   0   7  -2 3832.45 1785.51   1
   0  -7   3 9939.29 3087.01   1
   0  -7   3 6568.18 2080.13   1
   0  -7   3 8737.34 2584.38   1
   0   7   3 6410.35 1563.33   1
   0   7  -3  14763. 4496.15   1
   0   7  -3  10886. 3043.30   1
   0  -7   4 1148.12 541.885   1
   0  -7   4 1176.45 782.678   1
   0   7   4 2690.41 712.262   1
   0   7  -4 1283.28 821.934   1
   0   7  -4 1647.51 730.878   1
   0   7  -4 1396.60 789.558   1
   0  -8   0 4755.16 1613.11   1
   0  -8   0 2750.30 589.235   1
   0   8   0 4050.99 732.092   1
   0   8   0 3615.94 752.731   1
   0  -8   1 1237.96 586.402   1
   0  -8   1 1554.43 182.477   1
   0  -8  -1 2279.64 959.125   1
   0  -8  -1 1629.70 353.986   1
   0   8   1 5220.55 1959.93   1
   0   8   1 1257.38 354.391   1
   0   8   1 1432.62 301.618   1
   0   8  -1 1496.56 721.165   1
   0   8  -1 1821.93 193.322   1
   0   8  -1 8713.06 3101.98   1
   0   8  -1 1682.31 361.230   1
   0  -8   2  422.10 312.383   1
   0  -8  -2 1140.02 577.094   1
   0   8   2 1768.11 742.209   1
   0   8   2  239.21 344.759   1
   0   8  -2  594.09 396.681   1
   1   0  -7  355.40 323.148   1
   1   0  -6 2466.61 825.171   1
  -1   0   6 2977.33 979.360   1
   1   0  -5 3744.63 1925.94   1
  -1   0   5 1155.40 989.072   1
   1   0  -4  13492. 2342.77   1
   1   0  -3  21250. 3027.11   1
   1   0  -2  44193. 6220.15   1
  -1   0   2  49008. 6859.56   1
   1   0  -1 1126.26 162.282   1
   1   0   0  30915.  10510.   1
   1   0   0  36042. 5609.06   1
  -1   0   0  26398. 8984.21   1
   1   0   3 8280.04 1626.06   1
  -1   0  -3 8280.04 1624.85   1
   1   0   4 8369.07 3345.20   1
  -1   0  -4  14484. 5661.67   1
   1   0   5  537.84 362.080   1
  -1   0  -5  340.79 319.465   1
  -1   0  -6 1622.42 674.220   1
   1  -1  -7 1227.03 577.903   1
   1   1  -7  882.64 468.636   1
   1  -1  -6  893.97 501.821   1
  -1  -1   6 1132.74 520.437   1
   1   1  -6  755.56 408.741   1
  -1   1   6  174.87 278.753   1
   1  -1  -5 6592.47 3096.31   1
  -1  -1   5 4382.84 2138.00   1
  -1  -1   4 8158.63 1484.82   1
  -1  -1   4  11028. 2124.24   1
  -1  -1   4 7503.03 2360.58   1
   1   1  -4 9498.17 2984.62   1
   1   1  -4 7847.02 1432.21   1
   1  -1  -3  54108. 7397.81   1
  -1  -1   3  53581.  11044.   1
  -1  -1   3  56657. 7677.05   1
  -1  -1   3  65480.  13035.   1
   1   1  -3  61109.  12185.   1
   1   1  -3  69729.  14237.   1
   1   1  -3  53784. 7300.68   1
  -1   1   3  52327. 7134.76   1
   1  -1  -2  84783.  11902.   1
  -1  -1   2  98138.  13614.   1
   1   1  -2  87940.  12222.   1
   1   1  -2 158964.  53905.   1
   1  -1  -1  30295. 6738.16   1
   1  -1  -1  40550. 5706.19   1
  -1  -1   1  33662. 2248.89   1
  -1  -1   1  24735. 8441.92   1
   1   1  -1  32376. 2185.75   1
  -1   1   1  27758. 6171.58   1
   1  -1   0 133751.  45366.   1
   1  -1   0 149413.  23221.   1
  -1   1   0 128167.  43464.   1
  -1   1   0 171509.  26657.   1
   1  -1   1  12044. 4225.01   1
   1  -1   1 5163.90 837.312   1
  -1   1  -1  11441. 4046.94   1
  -1   1  -1 5054.63 830.837   1
   1  -1   2  12291. 2530.15   1
   1  -1   2 8215.29 2121.00   1
  -1   1  -2  11870. 2454.06   1
   1  -1   3  34848.  10469.   1
   1  -1   3  30101. 5212.46   1
  -1   1  -3  49980.  14986.   1
   1  -1   4  57507.  21226.   1
   1  -1   4  38871.  13185.   1
   1   1   4  43545.  16107.   1
  -1   1  -4  53258.  19692.   1
  -1   1  -4  39680.  13464.   1
   1  -1   5 1360.99 536.220   1
   1  -1   5  553.22 594.496   1
   1   1   5  518.41 319.425   1
  -1   1  -5  322.14 347.754   1
  -1  -1  -6 7171.18 1997.17   1
  -1   1  -6 6997.16 2028.73   1
   1  -2  -7 1656.82 659.651   1
  -1  -2   7  388.02 397.045   1
   1   2  -7  684.74 373.614   1
   1   2  -7  434.64 389.437   1
  -1  -2   6 3560.09 1140.43   1
   1   2  -6 4419.26 1315.26   1
  -1  -2   5 1129.50 583.569   1
   1   2  -5  366.29 380.939   1
  -1  -2   4 9125.85 2282.47   1
  -1  -2   4 5977.33 1142.45   1
  -1  -2   4 6734.11 1821.12   1
   1   2  -4 8029.13 2080.53   1
   1   2  -4 7681.09 1400.24   1
   1   2  -4  11242. 2789.96   1
   1  -2  -3 6082.55 1193.04   1
  -1  -2   3 8773.77 2012.95   1
  -1  -2   3 7418.04 3156.21   1
   1   2  -3 9647.91 4095.50   1
   1   2  -3 9736.94 2208.01   1
  -1   2   3 5418.85 1075.27   1
   1  -2  -2  31825. 4382.84   1
  -1  -2   2  58276.  12861.   1
  -1  -2   2  46783. 6313.23   1
  -1  -2   2  55726.  11137.   1
   1   2  -2  72319.  15811.   1
   1   2  -2  64104.  12825.   1
  -1   2   2  38713. 5305.54   1
   1  -2  -1  50911. 7110.47   1
   1  -2  -1  68717.  15184.   1
  -1  -2   1  55403.  15306.   1
  -1  -2   1  70093.  32291.   1
  -1  -2   1  57507. 8955.88   1
   1   2  -1  85714.  23209.   1
   1   2  -1  67908.  10575.   1
   1   2  -1  54512. 3620.80   1
   1   2  -1  89963.  41441.   1
  -1   2   1  70862.  15641.   1
  -1   2   1  53622. 7466.61   1
   1  -2   0 120963.  18818.   1
  -1  -2   0 187171.  86200.   1
  -1  -2   0 152772.  23747.   1
   1   2   0 158802.  73128.   1
   1   2   0 142048.  22084.   1
  -1   2   0 164387.  25581.   1
   1  -2   1  46823. 6920.27   1
   1  -2   1  36900. 8292.18   1
   1  -2   1  54431.  10907.   1
  -1   2  -1  57062.  11441.   1
   1  -2   2  13116. 2883.04   1
   1  -2   2  20615. 8389.31   1
  -1   2  -2 4985.83 1844.60   1
  -1   2  -2  22635. 9218.93   1
  -1   2  -2  11760. 2564.55   1
   1  -2   3 2461.75 971.670   1
   1  -2   3  954.27 396.195   1
  -1   2  -3 1039.25 399.554   1
  -1   2  -3 3003.64 1128.69   1
   1  -2   4 3538.24 1474.30   1
   1  -2   4 8729.25 2090.24   1
  -1   2  -4 8016.99 2904.08   1
  -1   2  -4 7494.93 1810.60   1
   1  -2   5 3242.81 1026.71   1
   1  -2   5 4840.14 1836.10   1
   1   2   5 1818.29 552.003   1
  -1   2  -5 3490.89 1055.04   1
  -1   2  -5 3774.58 1456.90   1
   1  -2   6 2214.08 706.596   1
  -1  -2  -6  869.28 469.445   1
  -1   2  -6 1101.58 644.678   1
  -1   2  -6 2767.70 828.409   1
  -1  -3   6 1784.70 709.024   1
  -1  -3   6 1102.39 480.372   1
   1   3  -6 1078.91 549.170   1
   1   3  -6  771.35 416.025   1
  -1  -3   5 6086.60 1777.01   1
  -1  -3   5 9142.04 2133.14   1
   1   3  -5  11809. 3194.25   1
   1   3  -5 8255.76 1933.22   1
   1   3  -5 5200.32 1031.16   1
  -1  -3   4 3141.64 1397.81   1
  -1  -3   4 7098.33 3038.44   1
   1   3  -4 4524.48 879.400   1
   1   3  -4 6025.89 2316.06   1
   1   3  -4 5293.40 2334.68   1
   1  -3  -3  44354. 7142.85   1
  -1  -3   3  64994.  10239.   1
  -1  -3   3  90004.  27005.   1
  -1  -3   3  66936.  11509.   1
   1   3  -3  48725. 7685.14   1
   1   3  -3  85350.  25609.   1
   1   3  -3  67543.  11574.   1
   1  -3  -2  33120. 5398.62   1
   1  -3  -2  33606. 3721.16   1
  -1  -3   2  37038.  14779.   1
  -1  -3   2  45042. 7175.23   1
   1   3  -2  42736. 6811.00   1
   1   3  -2  56212.  11412.   1
   1   3  -2  16180. 5710.23   1
   1   3  -2  29777.  11963.   1
  -1   3   2  28798. 3212.87   1
   1  -3  -1  26864. 3267.10   1
   1  -3  -1  20955. 3126.26   1
  -1  -3   1  18624. 3720.76   1
  -1  -3   1  38454. 8591.65   1
  -1  -3   1  26661. 2869.28   1
  -1  -3   1  33792. 5006.07   1
   1   3  -1  39219. 8664.50   1
   1   3  -1  25184. 5026.30   1
   1   3  -1  32011. 4755.16   1
   1   3  -1  23460. 2545.53   1
  -1   3   1  22525. 3365.44   1
  -1   3   1  22748. 3134.36   1
  -1   3   1  27402. 3351.27   1
   1  -3   0  69203.  10186.   1
  -1  -3   0  57224. 6811.00   1
  -1  -3   0  89073.  17754.   1
  -1  -3   0  52448.  11558.   1
   1   3   0  66208.  13201.   1
   1   3   0  47147. 5617.15   1
   1   3   0  61068.  13408.   1
  -1   3   0  74180.  10931.   1
   1  -3   1 1387.29 658.033   1
   1  -3   1 1353.30 642.249   1
   1  -3   1 7098.33 3088.62   1
  -1   3  -1 5248.88 2419.26   1
  -1   3  -1 1045.73 574.261   1
   1  -3   2  10737. 2114.93   1
   1  -3   2  16406. 5123.43   1
   1  -3   2 6895.99 1363.01   1
  -1   3  -2  18677. 5815.45   1
  -1   3  -2 5993.52 1231.08   1
   1  -3   3  28879. 6989.07   1
   1  -3   3  35459. 8280.04   1
  -1   3  -3  43990.  10579.   1
  -1   3  -3  27932. 6547.95   1
   1  -3   4  18766. 4180.49   1
  -1   3  -4  20813. 4617.56   1
   1  -3   5 1316.87 671.387   1
   1  -3   5  690.81 585.188   1
  -1   3  -5  869.69 607.446   1
  -1   3  -5  343.46 396.438   1
   1  -3   6 2450.83 1000.81   1
  -1   3  -6 2886.68 1111.69   1
  -1   3  -6 2693.24 928.368   1
  -1  -4   6 4795.62 1364.22   1
  -1  -4   6 3501.01 1266.29   1
   1   4  -6 3032.37 1138.40   1
   1   4  -6 5823.55 1600.56   1
  -1  -4   5 1876.16 721.974   1
  -1  -4   5 1157.83 755.159   1
   1   4  -5 2972.48 946.175   1
   1   4  -5 1596.52 910.562   1
  -1  -4   4 3897.61 1374.34   1
  -1  -4   4 3097.93 934.843   1
   1   4  -4 2819.91 895.993   1
   1   4  -4 2551.19 1137.19   1
  -1  -4   3 5888.30 1583.57   1
  -1  -4   3 5042.49 961.148   1
  -1  -4   3 7964.38 2078.91   1
   1   4  -3 7045.72 1899.63   1
   1   4  -3 5398.62 939.295   1
   1   4  -3 8749.49 2233.10   1
   1  -4  -2  11271. 1675.03   1
   1  -4  -2  11072. 1943.75   1
  -1  -4   2  12319. 2286.93   1
  -1  -4   2 8830.42 2792.79   1
   1   4  -2 7923.91 2593.68   1
   1   4  -2  14431. 2834.48   1
   1   4  -2  12574. 2299.47   1
  -1   4   2 9603.39 1437.88   1
  -1   4   2  11161. 1910.97   1
   1  -4  -1  27952. 3933.22   1
   1  -4  -1  36483. 6993.11   1
   1  -4  -1  26159. 4257.38   1
  -1  -4   1  34913. 6110.88   1
  -1  -4   1  22958. 4609.47   1
  -1  -4   1  27633. 5285.30   1
  -1  -4   1  29478. 2157.83   1
   1   4  -1  32339. 6483.20   1
   1   4  -1  27471. 5256.98   1
   1   4  -1  26641. 1974.91   1
   1   4  -1  32610. 5673.81   1
   1  -4   0  88709.  30615.   1
   1  -4   0  57669. 9166.32   1
   1  -4   0  48887.  10032.   1
   1  -4   0  47875.  11777.   1
  -1  -4   0 110117.  27082.   1
  -1  -4   0 102023.  35160.   1
  -1  -4   0  75516.  15253.   1
  -1  -4   0  74707. 8182.91   1
   1   4   0  60987.  12363.   1
   1   4   0  78389. 8583.56   1
   1   4   0  98260.  33877.   1
   1   4   0  62809.  15451.   1
  -1   4   0  56172.  13820.   1
  -1   4   0  93727.  32351.   1
  -1   4   0  66694.  10579.   1
  -1   4   0  47471. 9817.88   1
   1  -4   1 6786.72 2242.81   1
   1  -4   1 4977.74 1097.13   1
   1  -4   1 6887.89 1385.27   1
  -1  -4  -1  11849. 2262.24   1
  -1   4  -1 5006.07 1048.16   1
  -1   4  -1 5815.45 1188.99   1
  -1   4  -1 3659.24 1329.02   1
   1  -4   2 1159.04 528.126   1
   1  -4   2 2697.69 941.723   1
   1  -4   2  949.41 481.586   1
   1   4   2 1754.35 703.763   1
  -1   4  -2 2263.45 799.271   1
  -1   4  -2 1157.83 541.076   1
  -1   4  -2 1585.19 673.816   1
   1  -4   3 1400.65 749.089   1
   1  -4   3  483.61 484.823   1
   1  -4   3  459.33 311.776   1
  -1   4  -3  690.00 491.703   1
  -1   4  -3  320.92 341.562   1
  -1   4  -3 1055.44 785.511   1
   1  -4   4 2063.94 848.239   1
   1  -4   4 1989.88 1026.30   1
  -1   4  -4 1912.18 754.754   1
  -1   4  -4 1092.67 838.121   1
   1  -4   5 3867.26 1289.36   1
   1  -4   5 3866.85 1258.19   1
  -1   4  -5 2448.40 933.629   1
  -1   4  -5 5410.76 1704.57   1
  -1  -5   6  635.77 409.550   1
  -1  -5   6  552.41 518.818   1
   1   5  -6  549.57 402.428   1
  -1  -5   5 3533.38 1053.82   1
  -1  -5   5 3281.26 854.309   1
  -1  -5   5 6175.63 2040.06   1
   1   5  -5 4925.13 1694.45   1
   1   5  -5 3049.37 989.072   1
  -1  -5   4 1765.68 690.408   1
  -1  -5   4 1466.21 373.290   1
  -1  -5   4 2993.12 1064.35   1
   1   5  -4 1924.72 770.133   1
   1   5  -4 1536.62 394.820   1
   1   5  -4 1021.45 616.754   1
  -1  -5   3  19000. 5552.40   1
  -1  -5   3  21526. 4823.95   1
  -1  -5   3  22885. 2890.73   1
  -1  -5   3  17819. 5034.39   1
   1   5  -3  16520. 4686.36   1
   1   5  -3  21445. 6280.85   1
   1   5  -3  21036. 2651.15   1
   1   5  -3  20198. 4479.96   1
   1  -5  -2 3813.03 1085.39   1
   1  -5  -2 2221.77 685.956   1
  -1  -5   2 3642.65 1514.77   1
  -1  -5   2 5111.29 2327.40   1
   1   5  -2 3961.15 1680.29   1
   1   5  -2 3362.60 1754.35   1
   1   5  -2 2725.21 1360.58   1
  -1   5   2 2809.39 811.412   1
  -1   5   2 2712.26 1254.55   1
   1  -5  -1  36726.  10692.   1
   1  -5  -1  23420. 5710.23   1
   1  -5  -1  40121.  12080.   1
   1  -5  -1  21619. 3546.74   1
   1  -5  -1  23683. 4524.48   1
  -1  -5   1  24079. 5698.09   1
  -1  -5   1  21906. 6620.79   1
  -1  -5   1  22141. 4455.68   1
   1   5  -1  24160. 7284.49   1
   1   5  -1  27147. 6377.98   1
  -1   5   1  35528.  10388.   1
  -1   5   1  15071. 3847.43   1
  -1   5   1  14638. 2421.69   1
  -1   5   1  29142. 8773.77   1
  -1   5   1  26269. 4997.97   1
   1  -5   0 2887.09 890.327   1
   1  -5   0 5888.30 1016.59   1
   1  -5   0 8223.38 2565.76   1
   1  -5   0 2005.66 931.201   1
  -1  -5   0 6402.26 1944.55   1
  -1  -5   0 4204.77 883.447   1
  -1  -5   0 4350.46 1236.74   1
  -1  -5   0 9142.04 2821.12   1
   1   5   0 4706.59 1426.95   1
   1   5   0 5787.12 1192.63   1
   1   5   0 7968.43 2453.66   1
   1   5   0 6163.49 1635.37   1
  -1   5   0 3312.42 1112.91   1
  -1   5   0 7749.89 2414.00   1
  -1   5   0 5273.16 1598.14   1
  -1   5   0 4293.80 759.206   1
   1  -5   1 3110.88 1692.03   1
   1  -5   1 3578.71 1455.68   1
  -1  -5  -1 3786.32 1765.28   1
  -1  -5  -1 8992.30 3342.37   1
   1   5   1 4091.46 1655.60   1
   1   5   1 8077.69 3273.98   1
  -1   5  -1 2118.98 1274.79   1
  -1   5  -1 2850.26 1305.54   1
   1  -5   2 4338.32 1404.29   1
   1  -5   2 4467.82 1319.71   1
  -1  -5  -2 5896.39 1456.49   1
   1   5   2 6895.99 1655.60   1
  -1   5  -2 3871.71 1136.79   1
  -1   5  -2 4714.69 1600.97   1
  -1   5  -2 3866.04 1306.35   1
   1  -5   3  21684. 5791.17   1
   1  -5   3 9154.18 2299.47   1
  -1  -5  -3  17248. 3773.77   1
   1   5   3  23529. 5030.35   1
  -1   5  -3  14379. 3293.00   1
  -1   5  -3  22266. 5835.69   1
  -1   5  -3  20931. 5641.44   1
   1  -5   4 5467.42 2208.82   1
   1  -5   4 2680.69 1096.32   1
  -1   5  -4 1197.08 533.387   1
  -1   5  -4 1972.48 942.128   1
  -1   5  -4 5783.08 2392.55   1
   1  -5   5  842.98 630.109   1
   1  -5   5  838.53 615.135   1
  -1   5  -5 1375.56 658.033   1
  -1   5  -5  351.52 537.029   1
  -1  -6   5 1710.24 375.313   1
  -1  -6   5 2889.92 1225.01   1
  -1  -6   5 2424.93 849.453   1
   1   6  -5 2725.21 1215.30   1
   1   6  -5 1575.07 681.505   1
  -1  -6   4 1282.07 388.183   1
  -1  -6   4 2471.87 980.574   1
  -1  -6   4  940.91 454.471   1
  -1  -6   4  891.54 734.520   1
   1   6  -4 2382.84 486.442   1
   1   6  -4 1619.18 769.728   1
   1   6  -4  783.08 381.869   1
   1   6  -4 2735.73 1273.57   1
   1  -6  -3  291.18 193.889   1
  -1  -6   3  995.14 709.833   1
  -1  -6   3  796.03 501.011   1
  -1  -6   3  336.75 253.015   1
  -1  -6   3  782.27 196.034   1
   1   6  -3  602.99 482.800   1
   1   6  -3  484.42 114.043   1
   1   6  -3    2.17 427.357   1
  -1   6   3  752.33 258.154   1
   1  -6  -2  969.65 630.513   1
   1  -6  -2 1162.69 390.570   1
   1  -6  -2 1515.98 572.237   1
   1  -6  -2 1594.49 525.698   1
  -1  -6   2 1491.30 592.877   1
  -1  -6   2  954.27 451.639   1
   1   6  -2 1509.91 649.129   1
   1   6  -2 1061.51 491.703   1
   1   6  -2 1634.96 208.053   1
  -1   6   2  815.05 384.985   1
  -1   6   2  830.03 481.181   1
  -1   6   2  622.42 477.944   1
   1  -6  -1  10550. 1729.26   1
   1  -6  -1 6131.11 1653.18   1
   1  -6  -1  13873. 2962.36   1
   1  -6  -1  13735. 4160.25   1
   1  -6  -1 5884.25 838.121   1
  -1  -6   1 9360.57 2272.76   1
  -1  -6   1 7341.15 1586.81   1
   1   6  -1 8761.63 2671.39   1
   1   6  -1 9239.17 1980.57   1
   1   6  -1 8846.61 2127.88   1
  -1   6   1 9307.96 1547.15   1
  -1   6   1 5143.66 1395.79   1
  -1   6   1  13828. 4196.68   1
  -1   6   1 7215.70 1011.33   1
  -1   6   1 9834.07 2099.15   1
   1  -6   0  12796. 1650.34   1
   1  -6   0  22740. 6673.40   1
   1  -6   0  13877. 3204.37   1
   1  -6   0  14581. 3120.19   1
  -1  -6   0  17568. 2713.47   1
  -1  -6   0  15273. 3424.52   1
  -1  -6   0  21153. 6256.57   1
  -1  -6   0  24448. 5220.55   1
   1   6   0  19361. 2986.24   1
   1   6   0  14601. 3279.64   1
   1   6   0  30271. 8826.38   1
   1   6   0  17321. 3696.07   1
  -1   6   0  25585. 7507.07   1
  -1   6   0  10915. 2604.61   1
  -1   6   0  20720. 4419.26   1
  -1   6   0  14100. 1808.98   1
   1  -6   1  15156. 3466.61   1
  -1  -6  -1  16439. 4342.37   1
  -1  -6  -1  14318. 2961.96   1
  -1  -6  -1  17507. 3798.05   1
   1   6   1  21951. 5714.28   1
   1   6   1  17143. 3717.92   1
   1   6   1  11505. 2384.05   1
  -1   6  -1  14261. 3764.46   1
  -1   6  -1  13598. 3103.60   1
   1  -6   2  332.78 240.307   1
   1  -6   2  700.12 525.698   1
   1  -6   2  822.74 757.587   1
  -1  -6  -2  528.94 307.729   1
   1   6   2 1046.13 456.495   1
  -1   6  -2  575.07 485.228   1
  -1   6  -2  484.01 575.880   1
  -1   6  -2  308.54 235.451   1
   1  -6   3 3394.57 1451.23   1
   1  -6   3 1934.03 887.899   1
   1  -6   3 2627.68 1008.90   1
  -1  -6  -3 3016.99 932.010   1
   1   6   3 3300.28 961.148   1
  -1   6  -3 1611.49 766.895   1
  -1   6  -3 2249.29 906.110   1
  -1   6  -3 3771.75 1627.68   1
   1  -6   4 1462.97 866.045   1
   1  -6   4  176.73 355.321   1
   1  -6   4  806.96 436.260   1
  -1  -6  -4  536.22 345.447   1
   1   6   4  768.11 396.115   1
  -1   6  -4  720.36 666.936   1
  -1   6  -4  974.10 525.698   1
  -1   6  -4   72.48 333.144   1
  -1  -7   4  770.13 199.676   1
  -1  -7   4  116.51 284.257   1
  -1  -7   4 2066.37 898.826   1
  -1  -7   4  136.91 222.582   1
   1   7  -4  233.67 367.138   1
   1   7  -4 1655.60 781.464   1
  -1  -7   3 1772.16 681.100   1
  -1  -7   3 1967.62 779.036   1
  -1  -7   3 2031.56 774.584   1
   1   7  -3 1836.10 761.634   1
   1   7  -3 2674.22 958.720   1
   1   7  -3  868.47 532.577   1
   1  -7  -2 3258.60 1154.19   1
  -1  -7   2 3093.89 1087.01   1
  -1  -7   2 4021.04 537.838   1
  -1  -7   2 4055.03 1388.91   1
   1   7  -2 3359.37 488.870   1
   1   7  -2 3138.00 1125.05   1
   1   7  -2 4200.72 931.201   1
   1   7  -2 3434.23 1223.79   1
  -1   7   2 3929.17 1320.52   1
  -1   7   2 4164.30 884.661   1
  -1   7   2 2061.11 856.333   1
   1  -7  -1 3767.30 1167.95   1
   1  -7  -1 5046.54 1302.31   1
   1  -7  -1 8126.26 2050.58   1
   1  -7  -1 7486.84 1399.43   1
   1  -7  -1 3707.81 623.634   1
  -1  -7   1 4087.41 1057.87   1
  -1  -7   1 6033.99 1704.98   1
  -1  -7   1 5212.46 1239.17   1
   1   7  -1 5787.12 1619.59   1
   1   7  -1 6552.00 1531.36   1
   1   7  -1 7741.80 1960.34   1
  -1   7   1 3902.06 595.710   1
  -1   7   1 7094.29 1351.27   1
   1  -7   0 1526.51 280.777   1
   1  -7   0 1100.77 635.774   1
   1  -7   0 1478.75 404.330   1
   1  -7   0 2161.88 637.798   1
   1  -7   0 1764.87 233.994   1
  -1  -7   0 1566.98 428.166   1
  -1  -7   0 1922.30 441.521   1
  -1  -7   0  970.05 494.131   1
   1   7   0 1889.92 441.926   1
   1   7   0 1515.17 655.200   1
   1   7   0 1543.91 402.428   1
   1   7   0 2210.44 653.986   1
  -1   7   0 1118.98 565.358   1
  -1   7   0 1932.82 592.877   1
  -1   7   0 1798.46 321.246   1
  -1   7   0 2951.03 665.317   1
   1  -7   1  596.52 402.428   1
   1  -7   1  683.53 581.141   1
  -1  -7  -1  999.59 526.102   1
  -1  -7  -1 1606.64 716.713   1
  -1  -7  -1 1842.17 421.691   1
   1   7   1 1481.18 702.549   1
   1   7   1 1070.01 555.240   1
  -1   7  -1  691.22 538.648   1
  -1   7  -1  892.35 472.683   1
  -1   7  -1 1366.25 287.576   1
   1  -7   2  317.73 441.926   1
   1  -7   2  121.81 325.981   1
  -1  -7  -2  210.56 295.953   1
   1   7   2 1115.34 460.542   1
  -1   7  -2  338.24 281.222   1
  -1   7  -2   97.81 351.760   1
  -1   7  -2  433.43 454.067   1
   1  -7   3 2023.07 1004.05   1
   1  -7   3 1575.88 588.830   1
   1  -7   3 1894.78 840.549   1
   1   7   3 2959.93 919.870   1
  -1   7  -3 1514.77 900.040   1
  -1   7  -3 1469.44 581.950   1
   1  -8  -2 1054.23 586.402   1
  -1  -8   2  670.17 178.430   1
  -1  -8   2  297.00 167.543   1
  -1  -8   2 1076.49 504.653   1
   1   8  -2  633.75 479.158   1
   1   8  -2  796.84 289.720   1
  -1   8   2  396.96 357.143   1
  -1   8   2  989.48 639.417   1
  -1   8   2  604.61 433.427   1
   1  -8  -1  812.22 278.794   1
   1  -8  -1 1549.57 735.734   1
  -1  -8   1  692.43 429.785   1
  -1  -8   1  418.05 126.224   1
   1   8  -1  667.75 560.097   1
   1   8  -1  847.83 198.948   1
  -1   8   1  480.37 113.031   1
  -1   8   1  877.78 295.508   1
  -1   8   1  397.81 428.571   1
   1  -8   0 1744.64 163.375   1
   1  -8   0 9073.24 2822.74   1
  -1  -8   0 2519.63 539.457   1
   1   8   0 1938.48 407.932   1
   1   8   0 2762.44 543.504   1
   1   8   0 1723.59 825.981   1
  -1   8   0 3386.07 661.270   1
  -1   8   0 1238.36 683.528   1
  -1   8   0 2195.47 466.612   1
  -1   8   0 6891.94 2218.94   1
  -1   8   0 1724.00 370.659   1
   1  -8   1 5256.98 1609.47   1
  -1  -8  -1  10530. 3371.91   1
   1   8   1 4330.23 1710.64   1
   1   8   1 5386.48 1421.69   1
  -1   8  -1 4326.18 657.628   1
  -1   8  -1 6547.95 1986.24   1
  -1   8  -1 4031.97 1225.41   1
  -1   8  -1 8709.02 2790.37   1
   2   0  -7 5491.70 2053.42   1
   2   0  -7 2795.63 693.241   1
  -2   0   7 3289.76 793.605   1
   2   0  -6 1303.92 449.210   1
  -2   0   6  522.46 326.750   1
   2   0  -5 1012.95 479.158   1
  -2   0   5  624.44 379.927   1
   2   0  -4 1792.79 500.607   1
  -2   0   4 1067.99 392.189   1
   2   0  -3  20777. 2936.46   1
  -2   0   3  23513. 3331.85   1
   2   0  -2  18126. 2037.23   1
  -2   0   2  16629. 1889.52   1
   2   0  -1  10275. 4743.01   1
   2   0  -1  16495. 3707.81   1
   2   0  -1  28418. 9676.24   1
  -2   0   1  23533. 8029.13   1
  -2   0   1  16771. 3760.82   1
   2   0   0 4281.66 1559.69   1
   2   0   0 1481.58 244.880   1
  -2   0   0 1561.71 261.271   1
   2  -1  -7  325.90 256.171   1
  -2  -1   7  691.22 345.245   1
   2   1  -7  418.45 284.864   1
  -2   1   7  308.01 255.281   1
  -2  -1   6 6891.94 1087.41   1
   2   1  -6 4783.48 765.276   1
  -2   1   6 6390.12 1012.54   1
   2  -1  -5 8502.62 1933.63   1
  -2  -1   5 4823.95 1268.72   1
   2   1  -5 5758.80 1470.25   1
   2  -1  -4  11340. 2002.02   1
  -2  -1   4  13399. 4103.60   1
   2   1  -4  15148. 2579.12   1
  -2   1   4  12412. 2186.16   1
   2  -1  -3 4653.98 948.198   1
  -2  -1   3 2948.60 1342.37   1
  -2  -1   3 2848.64 672.602   1
   2   1  -3 3990.69 842.573   1
  -2   1   3 3352.49 728.854   1
   2  -1  -2  47956. 5754.75   1
   2  -1  -2  49089. 6705.78   1
  -2  -1   2  60218. 6191.82   1
  -2  -1   2  55484.  11044.   1
   2   1  -2  86362.  17163.   1
   2   1  -2  64508. 6661.26   1
  -2   1   2  51356. 6155.40   1
  -2   1   2  53096. 7211.65   1
   2  -1  -1  15099. 3012.14   1
   2  -1  -1  13420. 1650.75   1
  -2  -1   1  13019. 2602.18   1
  -2  -1   1  14703. 1775.80   1
   2   1  -1  14411. 2879.80   1
   2   1  -1  16928. 2042.49   1
  -2   1   1  15148. 1849.86   1
   2  -1   0  41724. 8360.98   1
  -2   1   0  55524. 8174.82   1
  -2   1   0  50223.  10077.   1
   2  -1   1  26702. 3966.41   1
  -2   1  -1  25904. 3862.40   1
  -2   1  -1  26613. 5366.24   1
   2  -1   2  28745. 8680.69   1
  -2   1  -2  25140. 7592.06   1
   2  -1   3 1369.89 550.789   1
  -2   1  -3 2277.21 732.496   1
   2  -1   4 7875.35 2171.18   1
  -2   1  -4 9943.33 2689.60   1
   2  -1   5 1806.15 737.353   1
  -2   1  -5 1543.50 736.138   1
   2  -2  -7 3573.45 843.382   1
  -2  -2   7 3985.83 869.283   1
  -2  -2   7 3226.63 914.204   1
   2   2  -7 9032.77 2836.10   1
   2  -2  -6  861.19 308.458   1
  -2  -2   6  235.05 340.064   1
  -2  -2   6 1430.19 355.807   1
  -2  -2   6 1089.03 661.675   1
   2   2  -6 1075.27 640.226   1
   2   2  -6 1320.52 854.309   1
   2   2  -6 1633.75 362.484   1
  -2   2   6  931.20 323.270   1
   2  -2  -5 3718.33 634.156   1
  -2  -2   5 5722.37 1724.00   1
  -2  -2   5 5633.34 904.087   1
   2   2  -5 4896.80 760.825   1
   2   2  -5 6653.17 1958.31   1
  -2   2   5 4127.88 716.713   1
   2  -2  -4  17819. 3095.10   1
  -2  -2   4  25095. 6038.04   1
  -2  -2   4  21878. 3631.32   1
   2   2  -4  17782. 2973.29   1
   2   2  -4  29741. 7142.85   1
  -2   2   4  17616. 3116.14   1
   2  -2  -3  28741. 4743.01   1
  -2  -2   3  24391. 9850.25   1
  -2  -2   3  30425. 4953.46   1
   2   2  -3  26123. 4301.90   1
   2   2  -3  40324.  16135.   1
  -2   2   3  27645. 4581.14   1
   2  -2  -2  15484. 1920.68   1
   2  -2  -2  26257. 3688.38   1
  -2  -2   2  17762. 3598.13   1
  -2  -2   2  17908. 2091.46   1
   2   2  -2  11679. 2394.17   1
   2   2  -2  23395. 2630.92   1
  -2   2   2  21032. 2578.71   1
   2  -2  -1  57264. 8437.87   1
   2  -2  -1  62404. 7454.46   1
  -2  -2   1  61918. 7377.57   1
  -2  -2   1  68555.  13671.   1
   2   2  -1  66977.  13355.   1
   2   2  -1  64751. 7717.52   1
  -2   2   1  59935. 8834.47   1
  -2   2   1  63335. 7563.73   1
   2  -2   0  62444.  12461.   1
   2  -2   0  60057. 8846.61   1
  -2  -2   0  54310. 7980.57   1
  -2   2   0  73654.  14694.   1
  -2   2   0  90651.  13335.   1
   2  -2   1  56252.  22485.   1
   2  -2   1 105585.  36422.   1
  -2   2  -1  53784.  21603.   1
  -2   2  -1 103723.  35787.   1
   2  -2   2 6572.23 2151.35   1
   2  -2   2 4496.15 917.037   1
  -2   2  -2 5390.52 1819.50   1
  -2   2  -2 3565.35 762.848   1
   2  -2   3  17588. 6086.60   1
  -2   2  -3  17426. 6013.75   1
   2  -2   4 3699.31 1219.75   1
   2  -2   4 5374.34 1573.05   1
  -2   2  -4 3815.05 1144.07   1
  -2   2  -4 4488.06 1311.61   1
   2  -2   5 3889.11 1263.05   1
  -2   2  -5  498.58 498.178   1
  -2   2  -5 5030.35 1530.15   1
   2  -3  -7  349.57 241.764   1
  -2  -3   7  287.45 201.457   1
  -2  -3   7  733.31 510.724   1
   2   3  -7  349.70 374.504   1
   2  -3  -6 1266.69 449.210   1
  -2  -3   6 1329.02 412.383   1
  -2  -3   6 1326.59 747.065   1
  -2  -3   6 2021.45 929.987   1
   2   3  -6 2548.36 1121.00   1
   2   3  -6 3452.85 1370.29   1
   2   3  -6 1066.37 376.042   1
  -2   3   6 1656.41 551.598   1
   2  -3  -5 3779.03 874.949   1
  -2  -3   5 3031.97 706.191   1
   2   3  -5 7167.13 2044.92   1
   2   3  -5 5859.97 1731.28   1
  -2   3   5 4225.01 1006.47   1
   2  -3  -4  12384. 2218.13   1
  -2  -3   4  22396. 7770.13   1
  -2  -3   4  17511. 2939.70   1
   2   3  -4  22590. 7863.21   1
   2   3  -4  17697. 2940.91   1
  -2   3   4  13926. 2435.45   1
   2  -3  -3  626.47 225.172   1
   2  -3  -3 1632.54 498.988   1
  -2  -3   3 1660.46 740.185   1
  -2  -3   3 2079.32 505.868   1
   2   3  -3 1904.49 788.749   1
   2   3  -3 1825.57 861.189   1
  -2   3   3 2326.99 570.214   1
   2  -3  -2  39397. 4378.79   1
   2  -3  -2  33832. 5499.79   1
  -2  -3   2  40955. 2968.03   1
   2   3  -2  36641. 2675.84   1
  -2   3   2  35536. 3965.19   1
  -2   3   2  39158. 6317.27   1
   2  -3  -1 9287.73 776.608   1
   2  -3  -1 9898.82 1159.85   1
   2  -3  -1  14241. 5103.19   1
  -2  -3   1  10664. 3758.80   1
  -2  -3   1  10174. 2518.01   1
   2   3  -1  10101. 2495.34   1
   2   3  -1  11372. 4017.40   1
  -2   3   1  16180. 5823.55   1
  -2   3   1 9915.00 774.180   1
  -2   3   1 9158.23 1074.06   1
   2  -3   0  13242. 5447.18   1
   2  -3   0  20271. 7102.38   1
  -2  -3   0  31032. 7636.58   1
  -2  -3   0  28976.  10028.   1
   2   3   0  20275. 4989.88   1
   2   3   0  36924.  12792.   1
  -2   3   0 8717.11 3713.07   1
  -2   3   0  22974. 8049.36   1
   2  -3   1 8591.65 2763.66   1
  -2   3  -1 5940.91 1220.56   1
  -2   3  -1 9251.31 2994.74   1
   2  -3   2 9575.06 2922.70   1
   2  -3   2  25107. 6175.63   1
  -2   3  -2  16244. 4115.74   1
   2  -3   3 4176.44 1407.53   1
   2  -3   3 3021.04 1255.36   1
   2  -3   3 1370.70 547.551   1
  -2   3  -3 1073.25 470.659   1
  -2   3  -3 3036.42 1002.83   1
  -2   3  -3 4601.37 1487.66   1
   2  -3   4 5499.79 2104.41   1
   2  -3   4 7021.44 1964.39   1
  -2   3  -4 6070.41 1922.70   1
  -2   3  -4 6673.40 2454.47   1
   2  -3   5  774.99 403.885   1
  -2   3  -5  191.18 412.383   1
  -2   3  -5  405.10 332.092   1
   2  -4  -6  140.95 260.825   1
  -2  -4   6   94.13 345.771   1
  -2  -4   6  140.02 221.327   1
  -2  -4   6  237.92 319.506   1
   2   4  -6  318.66 457.709   1
   2   4  -6  613.52 488.466   1
  -2   4   6  149.21 255.281   1
  -2  -4   5 6624.84 2026.71   1
  -2  -4   5 4285.71 702.549   1
  -2  -4   5  15415. 5333.87   1
   2   4  -5 5681.90 844.596   1
   2   4  -5 8251.71 3043.70   1
   2   4  -5 8223.38 2295.42   1
  -2   4   5 4013.35 710.238   1
   2  -4  -4 1627.68 377.741   1
  -2  -4   4 2022.26 931.606   1
  -2  -4   4 2569.81 430.999   1
  -2  -4   4 1169.16 684.742   1
   2   4  -4 2209.22 401.497   1
   2   4  -4 3755.16 1337.92   1
   2   4  -4 3040.87 1124.64   1
   2  -4  -3  21437. 5026.30   1
   2  -4  -3  25362. 4200.72   1
  -2  -4   3  13460. 5908.53   1
  -2  -4   3  17863. 4354.51   1
   2   4  -3  15269. 3752.32   1
  -2   4   3  19470. 4548.76   1
   2  -4  -2 9388.90 1902.87   1
  -2  -4   2 5159.85 407.527   1
  -2  -4   2 4099.55 1286.12   1
  -2  -4   2 3172.40 1343.99   1
   2   4  -2 6552.00 1989.07   1
   2   4  -2 9894.77 2865.64   1
   2   4  -2 5439.09 460.947   1
  -2   4   2 4795.62 1575.07   1
  -2   4   2 5600.97 1203.96   1
  -2   4   2 6730.06 1222.18   1
   2  -4  -1  37815. 6038.04   1
   2  -4  -1  62687.  12558.   1
   2  -4  -1  37972. 5301.49   1
   2  -4  -1  56010.  10672.   1
   2  -4  -1  41886. 2169.56   1
  -2  -4   1  48361. 9696.47   1
   2   4  -1  44435. 8441.92   1
   2   4  -1  48685. 9761.22   1
  -2   4   1  49696. 9947.38   1
  -2   4   1  37224. 5188.18   1
  -2   4   1  61513.  11720.   1
  -2   4   1  41764. 2152.16   1
   2  -4   0 4269.52 908.133   1
  -2  -4   0 4783.48 967.624   1
  -2  -4   0 6029.94 1207.61   1
   2   4   0 4609.47 954.673   1
   2   4   0 6297.04 1267.10   1
  -2   4   0 4095.50 885.875   1
   2  -4   1  29640. 7146.90   1
   2  -4   1  30105. 8745.44   1
  -2   4  -1  30210. 8781.86   1
  -2   4  -1  36924. 8878.99   1
   2  -4   2  585.19 477.944   1
   2  -4   2  753.54 744.637   1
  -2   4  -2  428.57 640.226   1
  -2   4  -2  506.68 469.850   1
   2  -4   3  13982. 3680.69   1
   2  -4   3  10599. 2697.69   1
  -2   4  -3  13084. 3246.05   1
  -2   4  -3  13355. 3552.00   1
   2  -4   4  479.16 498.583   1
   2  -4   4  999.19 630.513   1
  -2   4  -4  428.98 397.855   1
  -2   4  -4  299.60 250.627   1
  -2   4  -4 1304.73 671.387   1
   2  -4   5 1032.78 660.865   1
  -2   4  -5  544.72 505.868   1
  -2   4  -5  378.63 407.122   1
  -2  -5   6 2262.24 1043.30   1
   2   5  -6 1321.33 615.944   1
   2  -5  -5 1983.41 596.924   1
  -2  -5   5 2752.73 630.109   1
  -2  -5   5 4564.95 1831.24   1
  -2  -5   5 3854.71 1248.89   1
   2   5  -5 3446.78 712.666   1
   2   5  -5 4552.81 1873.33   1
   2   5  -5 5026.30 1554.03   1
  -2   5   5 1770.54 554.836   1
   2  -5  -4 5184.13 1073.25   1
  -2  -5   4 9850.25 2728.04   1
   2   5  -4  12424. 3411.57   1
   2   5  -4  12562. 3250.91   1
  -2   5   4 5609.06 1180.49   1
   2  -5  -3  917.85 314.043   1
  -2  -5   3 1102.79 594.900   1
  -2  -5   3 1974.50 877.377   1
   2   5  -3 3005.66 1169.16   1
   2   5  -3  575.47 393.322   1
   2   5  -3  741.40 518.008   1
  -2   5   3 1036.42 324.767   1
   2  -5  -2 4613.51 1852.28   1
   2  -5  -2  13080. 2766.08   1
   2  -5  -2  14779. 3584.78   1
  -2  -5   2  11133. 2080.53   1
   2   5  -2  16422. 3055.04   1
   2   5  -2  12796. 1138.40   1
   2   5  -2  28511.  11453.   1
  -2   5   2  14120. 3417.64   1
  -2   5   2 4220.96 1803.72   1
  -2   5   2  12614. 2688.38   1
   2  -5  -1 8016.99 3080.13   1
   2  -5  -1 5058.68 439.498   1
   2  -5  -1 5600.97 1293.40   1
   2  -5  -1 4229.05 1133.14   1
   2  -5  -1 7349.24 1369.08   1
  -2  -5   1 5451.23 1028.33   1
  -2  -5   1 4237.15 1641.03   1
  -2  -5   1 5115.33 2764.87   1
   2   5  -1 5418.85 1016.59   1
   2   5  -1  10125. 4649.93   1
  -2   5   1 5738.56 1469.44   1
  -2   5   1 6131.11 1396.19   1
  -2   5   1 7786.31 3038.04   1
  -2   5   1 5455.28 453.257   1
  -2   5   1 4840.14 900.444   1
   2  -5   0  22384. 8073.65   1
  -2  -5   0  22501. 8085.79   1
  -2  -5   0  20409. 3793.60   1
   2   5   0  14160. 2631.32   1
   2   5   0  23553. 8462.15   1
   2   5   0  22918. 9664.09   1
  -2   5   0  27175. 9781.46   1
   2  -5   1 2880.21 1190.21   1
   2  -5   1 2254.15 967.624   1
   2  -5   1 1269.93 545.528   1
  -2  -5  -1 1692.43 709.429   1
  -2   5  -1  699.72 540.671   1
   2  -5   2 2173.21 772.156   1
   2  -5   2 2038.44 1018.61   1
   2  -5   2 2833.67 992.310   1
  -2   5  -2 2939.29 1055.85   1
  -2   5  -2 2460.54 853.095   1
  -2   5  -2 1302.31 738.567   1
   2  -5   3 2246.05 892.350   1
   2  -5   3 2724.00 1310.80   1
   2  -5   3 1157.02 815.863   1
  -2   5  -3 1043.30 684.338   1
  -2   5  -3 4807.77 1992.71   1
  -2   5  -3 2959.93 1116.55   1
   2  -5   4 4318.09 1321.73   1
   2  -5   4 2846.21 1000.81   1
   2  -5   4 2112.91 996.357   1
  -2   5  -4 2531.77 979.764   1
  -2   5  -4 3919.87 1278.02   1
  -2  -6   5 1938.89 398.866   1
  -2  -6   5 1976.93 929.178   1
  -2  -6   5 2150.14 740.995   1
   2   6  -5 2309.18  999.19   1
  -2   6   5  780.65 340.752   1
   2  -6  -4 1435.85 504.653   1
   2  -6  -4 1575.47 503.844   1
  -2  -6   4 2741.40 1047.75   1
  -2  -6   4 3196.27 666.126   1
  -2  -6   4 1960.34 972.480   1
   2   6  -4 1853.90 918.251   1
   2   6  -4 2560.90 555.645   1
   2   6  -4 3448.40 1161.07   1
  -2   6   4 2121.00 630.513   1
   2  -6  -3  12214. 2187.78   1
  -2  -6   3  16868. 4216.91   1
   2   6  -3 8008.90 2947.39   1
   2   6  -3  15192. 1565.36   1
   2   6  -3  19943. 4366.65   1
  -2   6   3  12748. 2264.67   1
  -2   6   3  10809. 1510.32   1
   2  -6  -2  416.03 302.954   1
   2  -6  -2 1049.37 485.633   1
  -2  -6   2  335.57 412.788   1
  -2  -6   2  270.98 103.237   1
  -2  -6   2  338.93 130.959   1
   2   6  -2  651.15 571.833   1
   2   6  -2  356.74 101.578   1
   2   6  -2  358.56 313.962   1
  -2   6   2  317.16 276.568   1
  -2   6   2  644.27 363.901   1
  -2   6   2 1483.20 418.049   1
   2  -6  -1  17932. 3104.81   1
   2  -6  -1  22752. 5985.43   1
   2  -6  -1  15650. 1008.09   1
  -2  -6   1  16876. 3205.58   1
  -2  -6   1  19207. 4605.42   1
  -2  -6   1  14929. 3900.44   1
   2   6  -1  25378. 5770.94   1
   2   6  -1  14225. 3729.66   1
   2   6  -1  16540. 3133.95   1
   2   6  -1  24383. 4884.66   1
  -2   6   1  15310. 2895.59   1
  -2   6   1  24047. 4908.94   1
  -2   6   1  19381. 5127.47   1
  -2   6   1  14775. 2537.84   1
   2  -6   0 1093.89 802.913   1
   2  -6   0 1743.42 653.176   1
  -2  -6   0  826.39 183.812   1
  -2  -6   0  980.98 617.968   1
  -2  -6   0 1847.02 651.962   1
  -2  -6   0  690.00 249.575   1
   2   6   0 1467.42 288.142   1
   2   6   0  644.68 227.721   1
   2   6   0 1274.79 514.771   1
  -2   6   0 1196.28 235.613   1
  -2   6   0 1294.62 556.859   1
   2  -6   1 5734.51 2144.07   1
   2  -6   1 9085.38 2752.73   1
  -2  -6  -1 9384.86 2087.41   1
   2   6   1 5621.20 1306.35   1
   2   6   1 9757.17 2679.07   1
  -2   6  -1 4759.20 1874.95   1
  -2   6  -1 6592.47 1534.60   1
  -2   6  -1 6054.22 1956.70   1
   2  -6   2 1282.48 825.981   1
   2  -6   2 2468.63 1112.91   1
   2  -6   2 1987.45 805.341   1
  -2   6  -2 1276.81 813.030   1
  -2   6  -2 2471.87 1157.83   1
   2  -6   3  10202. 2688.38   1
   2  -6   3 6568.18 2146.90   1
  -2   6  -3 4645.89 1654.79   1
  -2   6  -3 9668.14 2597.73   1
  -2   6  -3 6636.98 2245.65   1
  -2  -7   4 2359.77 890.327   1
  -2  -7   4 1159.85 682.314   1
   2   7  -4 2664.51 917.037   1
  -2   7   4  594.50 473.897   1
   2  -7  -3   45.08 278.510   1
  -2  -7   3  444.35 159.409   1
   2   7  -3  168.31 266.005   1
   2   7  -3  381.79 428.166   1
  -2   7   3  231.32 212.990   1
  -2   7   3  331.48 330.918   1
   2  -7  -2  936.46 322.703   1
   2  -7  -2 1726.02 766.086   1
  -2  -7   2 1132.74 315.540   1
  -2  -7   2  852.69 420.072   1
  -2  -7   2  672.60 294.253   1
  -2  -7   2 3788.75 1425.33   1
   2   7  -2 1076.49 381.748   1
   2   7  -2  843.38 305.706   1
   2   7  -2 6531.76 2086.60   1
  -2   7   2 1181.30 528.126   1
  -2   7   2 1781.06 477.539   1
  -2   7   2 1048.56 440.712   1
   2  -7  -1 2242.41 505.868   1
   2  -7  -1 3273.98 1174.83   1
   2  -7  -1 1976.53 472.683   1
  -2  -7   1 1868.07 713.880   1
  -2  -7   1 2103.20 493.322   1
   2   7  -1 2607.04 586.806   1
   2   7  -1 4605.42 855.523   1
   2   7  -1 3085.79 1242.82   1
  -2   7   1 2175.23 483.205   1
  -2   7   1 3126.67 690.408   1
  -2   7   1 1941.72 464.589   1
   2  -7   0 2305.14 1344.39   1
   2  -7   0 1679.48 388.830   1
   2  -7   0 2129.90 846.620   1
  -2  -7   0 3597.33 805.746   1
  -2  -7   0 2951.43 597.733   1
  -2  -7   0 3503.03 1217.72   1
   2   7   0 3400.64 1316.47   1
   2   7   0 2439.50 545.932   1
   2   7   0 2321.73 501.416   1
  -2   7   0 2306.76 514.771   1
  -2   7   0 2059.89 842.573   1
  -2   7   0 2871.30 597.328   1
   2  -7   1  151.32 297.733   1
   2  -7   1  246.01 479.158   1
   2  -7   1  139.50 228.409   1
  -2  -7  -1 1164.30 537.434   1
   2   7   1  276.49 269.041   1
   2   7   1 2136.38 893.969   1
  -2   7  -1  211.65 410.360   1
  -2   7  -1  112.14 203.156   1
  -2   7  -1   89.40 398.583   1
   2  -7   2  229.18 403.804   1
   2  -7   2  584.78 592.472   1
   2  -7   2  299.84 343.019   1
   2   7   2  549.98 652.367   1
  -2   7  -2  128.85 239.134   1
  -2   7  -2   67.02 293.565   1
  -2   7  -2  281.63 422.501   1
   2  -8  -2  845.81 521.651   1
  -2  -8   2  389.64 164.589   1
  -2  -8   2   53.46 132.173   1
   2   8  -2  819.10 508.700   1
   2   8  -2  325.86 166.167   1
  -2   8   2  633.75 249.534   1
  -2   8   2  373.29 461.756   1
  -2   8   2  682.72 521.651   1
   2  -8  -1  997.17 257.790   1
   2  -8  -1 2458.92 904.896   1
  -2  -8   1 1106.84 405.908   1
   2   8  -1  757.18 279.441   1
   2   8  -1 5188.18 1863.62   1
   2   8  -1  830.43 528.530   1
  -2   8   1 6786.72 2550.79   1
  -2   8   1  141.52 320.356   1
  -2   8   1  668.96 231.890   1
  -2   8   1 1930.39 789.153   1
  -2   8   1  526.91 211.250   1
   2  -8   0   87.41 120.558   1
   2  -8   0  421.29 352.650   1
  -2  -8   0  336.62 163.982   1
   2   8   0   95.18  85.350   1
   2   8   0 1483.20 716.308   1
   2   8   0  166.77 246.256   1
  -2   8   0  334.88 150.546   1
  -2   8   0  633.35 432.213   1
  -2   8   0  240.47 432.213   1
  -2   8   0  126.51  88.264   1
   3   0  -7 3824.36 898.826   1
  -3   0   7 3176.85 798.461   1
   3   0  -6  378.35 210.198   1
  -3   0   6  314.08 187.414   1
  -3   0   4  17871. 3065.56   1
   3   0  -3 1091.86 230.473   1
   3   0  -2  87171. 9575.06   1
   3   0  -2  75233. 5329.82   1
  -3   0   2  73857. 5188.18   1
   3   0  -1  88871.  21858.   1
   3   0  -1  72966.  28847.   1
  -3   0   1  79846.  19636.   1
  -3   0   1  47632.  18855.   1
   3   0   0 6017.80 2530.15   1
   3   0   0 1411.98 601.375   1
  -3   0   0 4358.56 1906.51   1
  -3   0   0 1227.84 540.267   1
   3   0   1  966.41 689.599   1
   3   0   1 1655.20 366.693   1
  -3   0  -1 1668.55 385.309   1
   3  -1  -7  338.57 288.061   1
   3   1  -7  270.38 224.686   1
  -3   1   7  427.36 277.661   1
   3  -1  -6 7231.88 1099.96   1
  -3  -1   6 6471.06 1015.78   1
   3   1  -6 7231.88 1155.81   1
  -3   1   6 7337.10 1132.74   1
   3  -1  -5  14286. 1949.82   1
  -3  -1   5  11922. 1634.15   1
   3   1  -5  16936. 2270.74   1
  -3   1   5  13642. 1891.14   1
   3  -1  -4  73047.  11688.   1
  -3  -1   4  95225.  15176.   1
   3   1  -4  78349.  12525.   1
  -3   1   4  73938.  11825.   1
   3  -1  -3  25694. 3611.09   1
   3  -1  -3  32622. 5382.43   1
  -3  -1   3  33630. 1837.31   1
   3   1  -3  34783. 1915.82   1
   3   1  -3  25605. 7652.76   1
  -3   1   3  28130. 3942.93   1
   3  -1  -2  43545. 3191.01   1
   3  -1  -2  44678. 4961.55   1
  -3  -1   2  38830. 4285.71   1
  -3  -1   2  39870. 9813.83   1
  -3  -1   2  40550. 2997.16   1
   3   1  -2  41603.  10247.   1
   3   1  -2  35540. 2724.00   1
   3   1  -2  38369. 4233.10   1
  -3   1   2  53946. 5989.47   1
   3  -1  -1  24391. 9773.36   1
   3  -1  -1  20352. 5006.07   1
  -3  -1   1  21886. 5390.52   1
   3   1  -1  18940. 4666.12   1
  -3   1   1  26775.  10724.   1
  -3   1   1  18037. 4439.49   1
  -3   1   1  24403. 8494.53   1
   3  -1   0  27677.  11121.   1
   3  -1   0  24015. 8365.03   1
  -3  -1   0  25095. 8672.59   1
   3   1   0  26665. 9210.84   1
   3  -1   1 8502.62 2676.65   1
  -3   1  -1 4188.58 1409.55   1
  -3   1  -1 2868.88 626.466   1
   3  -1   2  22987. 7903.68   1
  -3   1  -2  20793. 7114.52   1
  -3   1  -2 5888.30 2225.82   1
   3  -1   3 1911.77 700.121   1
  -3   1  -3 3644.67 1102.39   1
   3  -1   4 3334.68 1329.02   1
  -3   1  -4 3027.11 1225.41   1
   3  -1   5  721.16 504.653   1
  -3   1  -5 1385.27 758.801   1
   3  -2  -7 2256.17 619.991   1
  -3  -2   7 3063.53 863.617   1
  -3  -2   7 3400.64 798.866   1
  -3   2   7 2211.25 598.138   1
   3  -2  -6 1795.63 414.407   1
  -3  -2   6 2567.38 536.220   1
  -3  -2   6 2509.10 1040.47   1
   3   2  -6 2126.67 911.776   1
   3   2  -6 2655.60 503.439   1
  -3   2   6 2248.08 507.891   1
   3  -2  -5 1245.65 334.601   1
  -3  -2   5 1891.54 394.981   1
  -3  -2   5 4277.62 1318.09   1
   3   2  -5 3102.79 1020.23   1
  -3   2   5 1193.44 356.859   1
   3  -2  -4  15192. 2616.75   1
  -3  -2   4  20554. 3445.16   1
   3   2  -4  21975. 5301.49   1
   3  -2  -3 4050.99 700.930   1
  -3  -2   3 4686.36 391.946   1
  -3  -2   3 7033.58 2224.20   1
   3   2  -3 5139.61 475.920   1
   3   2  -3 5297.45 1714.69   1
  -3   2   3 4751.11 809.388   1
   3  -2  -2  38928. 5447.18   1
   3  -2  -2  30409. 2330.63   1
  -3  -2   2  30724. 6163.49   1
  -3  -2   2  29866. 4127.88   1
   3   2  -2  31627. 4374.74   1
   3   2  -2  33242. 6665.31   1
   3   2  -2  24824. 1958.72   1
  -3   2   2  39272. 5503.84   1
  -3   2   2  34779. 2533.79   1
   3  -2  -1  33460.  11651.   1
   3  -2  -1  19292. 7766.08   1
  -3  -2   1  37896. 9328.20   1
   3   2  -1  32699. 8049.36   1
  -3   2   1  16172. 6552.00   1
  -3   2   1  39883.  13893.   1
   3  -2   0  24836. 7567.78   1
   3  -2   0  21817. 4184.54   1
  -3   2   0  27685. 8425.73   1
   3  -2   1 7070.00 2184.94   1
  -3   2  -1 8053.41 2462.97   1
   3  -2   2 9316.06 3366.65   1
   3  -2   2  10259. 3790.36   1
  -3   2  -2  10445. 3737.75   1
  -3   2  -2 9939.29 3757.18   1
   3  -2   3 2216.91 791.986   1
  -3   2  -3  792.80 465.803   1
   3  -2   4 2218.53 854.714   1
  -3   2  -4 2531.77 879.805   1
   3  -3  -7  476.73 250.627   1
  -3  -3   7 2259.00 888.708   1
  -3  -3   7  473.49 227.924   1
   3   3  -7 2174.83 1047.75   1
  -3   3   7  486.85 270.781   1
   3  -3  -6 2703.36 749.898   1
  -3  -3   6 3596.92 816.673   1
  -3  -3   6 3076.48 1273.98   1
   3   3  -6 3222.98 733.306   1
   3   3  -6 5273.16 1949.41   1
  -3   3   6 2897.61 815.863   1
   3  -3  -5 2934.44 765.276   1
  -3  -3   5 3392.15 754.350   1
   3   3  -5 3230.27 733.306   1
   3   3  -5 4710.64 1385.27   1
  -3   3   5 2155.00 585.997   1
   3  -3  -4  34290. 6928.36   1
  -3  -3   4  73573.  24925.   1
  -3  -3   4  42412. 8514.76   1
  -3   3   4  28300. 5783.08   1
   3  -3  -3  29705. 5637.39   1
   3  -3  -3  36074. 5932.81   1
  -3  -3   3  28163. 5754.75   1
   3   3  -3  31518. 6268.71   1
  -3   3   3  40393. 6632.94   1
  -3   3   3  29984. 5702.14   1
   3  -3  -2 8182.91 1265.07   1
   3  -3  -2 9745.03 634.560   1
  -3  -3   2 9421.28 671.387   1
  -3  -3   2 7021.44 1424.12   1
   3   3  -2 6244.43 1263.45   1
  -3   3   2 8866.85 567.381   1
  -3   3   2 9024.68 1386.08   1
   3  -3  -1  25055. 4856.33   1
  -3  -3   1  22250. 4467.82   1
  -3  -3   1  14011. 2680.69   1
   3   3  -1  16880. 3386.88   1
   3   3  -1  17406. 3322.13   1
  -3   3   1  20097. 2875.76   1
  -3   3   1  21004. 4075.27   1
   3  -3   0  11603. 2918.65   1
  -3  -3   0  11384. 3304.73   1
  -3   3   0  15427. 3797.65   1
  -3   3   0 9587.20 2882.23   1
   3  -3   1 7033.58 2721.57   1
  -3   3  -1 3669.36 1513.96   1
  -3   3  -1 3711.04 1616.35   1
   3  -3   2 8915.41 2687.57   1
   3  -3   2  10324. 3163.09   1
  -3   3  -2 8535.00 2652.36   1
   3  -3   3 6972.88 2548.76   1
   3  -3   3 5495.75 1266.69   1
  -3   3  -3 4658.03 1132.33   1
  -3   3  -3 4544.71 1790.37   1
   3  -3   4 1021.04 504.249   1
  -3   3  -4 1564.55 586.402   1
  -3  -4   6 2283.69 543.909   1
  -3  -4   6 2006.88 697.693   1
  -3   4   6 2112.91 608.255   1
   3  -4  -5 2410.76 480.372   1
   3   4  -5 4860.38 1942.53   1
   3   4  -5 2577.90 457.304   1
  -3   4   5 2549.57 514.366   1
   3  -4  -4 4176.44 687.170   1
   3  -4  -4 3259.81 864.831   1
   3   4  -4 5770.94 1689.60   1
  -3   4   4 2840.95 751.922   1
  -3   4   4 4212.87 711.047   1
   3  -4  -3 2979.76 935.248   1
   3  -4  -3 4411.17 1127.88   1
  -3  -4   3 3708.62 495.750   1
   3   4  -3 3473.49 482.395   1
   3   4  -3 2225.41 1027.92   1
  -3   4   3 3140.83 953.864   1
   3  -4  -2 2541.88 336.341   1
   3  -4  -2  957.51 615.135   1
   3  -4  -2 2507.08 850.262   1
  -3  -4   2 1925.13 382.719   1
   3   4  -2 1409.95 282.841   1
   3   4  -2 1456.90 691.622   1
  -3   4   2 1570.21 612.707   1
  -3   4   2 1996.76 1023.47   1
  -3   4   2 3099.96 869.688   1
  -3  -4   1 8340.75 3047.75   1
  -3  -4   1 9777.41 1829.62   1
   3   4  -1 9619.58 3509.10   1
   3   4  -1 7762.03 1448.40   1
  -3   4   1  11437. 2771.34   1
   3  -4   0  14095. 5143.66   1
   3  -4   0 7146.90 2721.16   1
  -3  -4   0  28741. 5337.91   1
   3   4   0  29955.  10668.   1
  -3   4   0 5564.54 2149.33   1
  -3   4   0  19174. 6944.55   1
   3  -4   1 3319.30 1113.72   1
   3  -4   1 5819.50 1863.62   1
  -3   4  -1 7567.78 2368.67   1
  -3   4  -1 3502.63 1173.21   1
   3  -4   2 6685.55 1916.23   1
  -3   4  -2 8191.01 2345.61   1
   3  -4   3  772.97 746.661   1
   3  -4   3  259.98 293.929   1
  -3   4  -3  209.35 583.569   1
  -3   4  -3  278.23 316.228   1
   3  -4   4  263.05 266.208   1
   3  -4   4 1689.19 813.840   1
  -3   4  -4  833.67 572.237   1
  -3   4  -4  248.04 237.151   1
  -3  -5   6   83.77 223.998   1
  -3  -5   6  977.34 653.986   1
   3   5  -6 3163.09 1473.90   1
  -3   5   6  834.88 319.668   1
   3  -5  -5 1532.58 613.516   1
  -3  -5   5 1590.85 531.768   1
  -3  -5   5 1772.96 771.752   1
  -3  -5   5  194.98 322.744   1
   3   5  -5 2968.84 1291.78   1
  -3   5   5 1090.65 527.316   1
   3  -5  -4 8413.59 1236.34   1
  -3  -5   4 5560.50 2067.99   1
   3   5  -4 4904.89 1833.67   1
  -3   5   4 6074.46 1038.44   1
   3  -5  -3  16123. 3413.59   1
   3  -5  -3  16932. 2950.62   1
  -3  -5   3  15362. 1178.47   1
   3   5  -3  16131. 1225.01   1
  -3   5   3  16370. 3433.42   1
  -3   5   3  15945. 2848.64   1
   3  -5  -2  307.73 211.129   1
   3  -5  -2 2714.69 991.500   1
  -3  -5   2  199.35 111.938   1
   3   5  -2  265.76 101.052   1
   3   5  -2  932.82 482.800   1
  -3   5   2  385.35 223.189   1
  -3   5   2 1912.58 758.397   1
   3  -5  -1 7426.14 1588.83   1
   3  -5  -1  11048. 3366.25   1
   3  -5  -1 8688.78 1476.73   1
  -3  -5   1 7183.32 2150.95   1
  -3  -5   1  11060. 2377.17   1
   3   5  -1 9708.61 2078.91   1
  -3   5   1 9579.11 2042.49   1
  -3   5   1  11137. 1799.67   1
   3  -5   0 2754.35 918.656   1
   3  -5   0 4751.11 1372.72   1
  -3  -5   0 5544.31 1516.79   1
  -3  -5   0 6406.31 1221.37   1
   3   5   0 5337.91 1014.57   1
  -3   5   0 6782.67 1892.35   1
  -3   5   0 2105.22 820.720   1
   3  -5   1  12861. 3469.44   1
   3  -5   1 7329.01 1669.36   1
  -3   5  -1 7596.11 2169.56   1
   3  -5   2 3601.78 1561.71   1
   3  -5   2 2641.44 1013.35   1
  -3   5  -2 3297.04 1179.28   1
  -3   5  -2 4613.51 1926.75   1
   3  -5   3 4180.49 1513.96   1
   3  -5   3 6272.76 1785.51   1
  -3   5  -3 6301.09 2075.27   1
  -3   5  -3 6746.25 2031.16   1
  -3  -6   5 2859.16 567.786   1
  -3  -6   5 2835.29 1182.52   1
   3  -6  -4  433.83 318.616   1
  -3  -6   4  486.44 477.539   1
  -3  -6   4  231.49 362.080   1
   3   6  -4 1798.87 1050.18   1
  -3   6   4  434.24 321.448   1
  -3   6   4  426.95 279.482   1
   3  -6  -3  423.31 268.069   1
  -3  -6   3  169.97 403.601   1
  -3  -6   3  569.81 234.399   1
  -3  -6   3  386.04 300.000   1
   3   6  -3  577.50 283.205   1
   3   6  -3  479.56 376.973   1
   3   6  -3 1569.00 1135.98   1
   3   6  -3  698.50 185.026   1
  -3   6   3  629.30 276.932   1
  -3   6   3  868.88 342.978   1
   3  -6  -2 1394.17 516.390   1
   3  -6  -2 2002.02 403.440   1
   3  -6  -2 1772.56 485.633   1
   3  -6  -2 2174.02 334.115   1
  -3  -6   2 1311.61 379.927   1
   3   6  -2 1626.06 438.688   1
   3   6  -2 3247.67 856.333   1
   3   6  -2 3208.01 1669.77   1
  -3   6   2 3517.60 926.345   1
  -3   6   2 1590.45 459.732   1
   3  -6  -1 9283.68 2128.69   1
   3  -6  -1 6608.65 1668.15   1
   3  -6  -1 7134.76 1358.56   1
  -3  -6   1 8842.57 2247.67   1
  -3  -6   1 6580.33 1116.55   1
  -3  -6   1 7203.55 1632.94   1
   3   6  -1 6086.60 1036.42   1
   3   6  -1 9081.33 2291.38   1
   3   6  -1 7482.79 1676.24   1
  -3   6   1 9870.49 2277.21   1
  -3   6   1  10000. 2511.53   1
  -3   6   1  11202. 1982.60   1
   3  -6   0 7462.56 2296.23   1
  -3  -6   0  10826. 3183.73   1
  -3  -6   0 9340.34 2052.61   1
   3   6   0 7167.13 2198.30   1
   3   6   0 7563.73 1658.03   1
  -3   6   0 8745.44 2677.05   1
   3  -6   1 1539.86 883.447   1
  -3  -6  -1 1748.68 667.341   1
  -3   6  -1 1252.93 778.227   1
  -3   6  -1 3877.78 1190.61   1
   3  -6   2 1322.94 590.044   1
   3  -6   2  695.26 426.952   1
  -3   6  -2 2066.77 788.749   1
  -3   6  -2  813.03 468.636   1
  -3  -7   4 3176.44 463.779   1
  -3  -7   4 2192.63 1054.23   1
   3   7  -4 4694.45 1641.44   1
  -3   7   4 1880.61 1023.07   1
   3  -7  -3  268.27 314.326   1
  -3  -7   3 1640.63 370.052   1
  -3  -7   3 2060.30 317.199   1
  -3  -7   3 1373.13 655.200   1
   3   7  -3 2464.59 523.674   1
   3   7  -3 2951.43 1698.91   1
  -3   7   3 1518.41 398.664   1
  -3   7   3 1099.96 571.428   1
  -3   7   3 1757.59 484.419   1
   3  -7  -2 1008.90 585.188   1
  -3  -7   2   17.98  71.388   1
  -3  -7   2  265.07 281.384   1
   3   7  -2 1106.84 988.668   1
   3   7  -2  206.07  89.883   1
  -3   7   2  246.09 185.350   1
  -3   7   2  388.22 219.344   1
   3  -7  -1  297.09 293.079   1
   3  -7  -1  193.28 116.269   1
  -3  -7   1  281.71 238.648   1
  -3  -7   1  608.66 263.537   1
  -3  -7   1  344.52 139.862   1
   3   7  -1 1920.68 632.132   1
   3   7  -1  428.57 318.251   1
   3   7  -1  510.32 737.757   1
   3   7  -1  404.69 157.183   1
  -3   7   1  498.58 279.198   1
  -3   7   1  631.73 216.268   1
  -3   7   1  390.08 319.992   1
   3  -7   0 2487.25 937.676   1
  -3  -7   0 1290.57 286.969   1
   3   7   0 1813.03 716.308   1
   3   7   0 1234.72 265.115   1
  -3   7   0 1530.96 690.813   1
   3  -7   1 2260.62 815.863   1
   3  -7   1 2007.69 889.113   1
  -3  -7  -1 3951.03 1222.18   1
  -3   7  -1 2828.41 978.955   1
  -3   7  -1  601.78 501.011   1
   4   0  -7 7418.04 1411.98   1
  -4   0   7  11404. 2072.03   1
   4   0  -6  26661. 4609.47   1
  -4   0   6  31481. 5439.09   1
   4   0  -5 1770.94 397.571   1
  -4   0   5 1641.03 411.979   1
   4   0  -4  54836. 4131.93   1
   4   0  -3   99.27 182.315   1
  -4   0   3  274.02 237.070   1
  -4   0   3 2237.55 920.679   1
   4   0  -2 4000.81 1221.77   1
   4   0  -2 5961.14 1233.10   1
   4   0  -2 9340.34 2843.38   1
  -4   0   2  13646. 4127.88   1
   4   0  -1  45447.  10797.   1
   4   0  -1 107325.  32303.   1
   4   0  -1  69243.  19875.   1
  -4   0   1 108337.  32598.   1
  -4   0   1  88021.  25229.   1
  -4   0   1  41562. 9874.54   1
   4   0   0 127398.  36487.   1
   4   0   0  77863.  18474.   1
  -4   0   0  92918.  22048.   1
  -4   0   0 123877.  35484.   1
   4   0   1 1395.79 645.082   1
   4   0   1 1375.96 904.491   1
  -4   0  -1  492.11 385.714   1
   4  -1  -7  901.25 369.607   1
  -4  -1   7  400.32 248.725   1
   4   1  -7  581.14 286.321   1
   4   1  -6 3278.43 784.702   1
  -4   1   6 2800.89 703.358   1
  -4  -1   5 6402.26 1312.83   1
   4   1  -5 4718.73 997.166   1
  -4   1   5 6212.05 1297.04   1
   4  -1  -4  31963. 6620.79   1
   4  -1  -4  24346. 5633.34   1
  -4  -1   4  29806. 2341.96   1
   4   1  -4  34508. 2726.83   1
  -4   1   4  30506. 6264.66   1
  -4   1   4  26074. 6005.66   1
   4  -1  -3  25010. 4747.06   1
   4  -1  -3  21311. 4609.47   1
  -4  -1   3  21234. 4038.85   1
  -4  -1   3  22796. 5455.28   1
  -4  -1   3  21756. 4751.11   1
   4   1  -3  21764. 4127.88   1
   4   1  -3  18503. 4233.10   1
  -4   1   3  22849. 4358.56   1
  -4   1   3  20449. 4277.62   1
   4  -1  -2 3326.99 1017.40   1
   4  -1  -2 3695.26 823.957   1
  -4  -1   2 3235.93 1000.81   1
  -4  -1   2 5147.71 1084.18   1
   4   1  -2 3589.23 1101.98   1
   4   1  -2 5196.27 1069.61   1
  -4   1   2 4573.04 1389.31   1
  -4   1   2 4949.41 1089.03   1
  -4   1   2 3858.76 1023.47   1
   4  -1  -1 4229.05 1351.68   1
   4   1  -1 5131.52 1553.62   1
   4  -1   0 2076.08 749.493   1
   4  -1   0 2104.41 739.376   1
  -4  -1   0 2749.49 870.902   1
   4   1   0 2645.08 846.215   1
  -4   1   0 4593.28 1257.38   1
   4  -1   1 4904.89 1577.90   1
   4  -1   1 7021.44 2167.95   1
  -4   1  -1 5180.08 1576.69   1
   4  -1   2  10101. 2659.65   1
   4  -1   2  11659. 3153.38   1
  -4   1  -2 9332.25 2527.72   1
  -4   1  -2 9409.14 2511.53   1
   4  -1   3 2016.19 771.347   1
  -4   1  -3 3303.52 1089.44   1
   4  -1   4  567.38 482.395   1
   4  -2  -7 7887.49 1441.92   1
  -4  -2   7 5949.00 1045.73   1
  -4   2   7 5665.72 1053.01   1
   4  -2  -6  14492. 2632.94   1
  -4  -2   6  15815. 5265.07   1
  -4  -2   6  18891. 3354.10   1
   4   2  -6  19280. 3479.56   1
   4   2  -6  11068. 3736.54   1
  -4   2   6  14075. 2586.00   1
   4  -2  -5 1812.22 531.363   1
  -4  -2   5 1881.42 634.156   1
  -4  -2   5 1259.81 419.263   1
   4   2  -5 2278.43 705.382   1
  -4   2   5 1681.50 511.129   1
   4  -2  -4  19025. 2536.62   1
   4  -2  -4  16471. 2630.51   1
  -4  -2   4  18644. 5192.22   1
  -4  -2   4  18940. 2338.32   1
   4   2  -4  21396. 2669.36   1
   4   2  -4  24346. 6734.11   1
  -4   2   4  20534. 2737.35   1
  -4   2   4  13302. 2161.07   1
   4  -2  -3 2868.88 447.592   1
  -4  -2   3 2330.63 410.360   1
  -4  -2   3 2709.83 743.423   1
   4   2  -3 2873.33 468.636   1
   4   2  -3 2806.55 1069.20   1
  -4   2   3 2993.52 909.752   1
   4  -2  -2 8065.55 1630.51   1
  -4  -2   2 8607.84 1675.43   1
   4   2  -2  12934. 2467.02   1
  -4   2   2  12299. 2452.04   1
   4  -2  -1  43666.  10445.   1
  -4  -2   1  47187.  14209.   1
  -4   2   1  54189.  12946.   1
   4  -2   0  73452.  24929.   1
   4  -2   0  89276.  31562.   1
  -4   2   0  86362.  30518.   1
   4  -2   1 4722.78 1622.01   1
   4  -2   1 2776.20 991.500   1
  -4   2  -1 2704.98 985.025   1
  -4   2  -1 2029.14 752.326   1
   4  -2   2  11433. 3955.07   1
  -4   2  -2  15674. 5317.68   1
   4  -2   3 1514.77 709.833   1
  -4   2  -3  208.66 228.652   1
  -4   2  -3 2766.08 957.101   1
   4  -3  -6 1172.80 504.653   1
  -4  -3   6  815.05 528.126   1
   4   3  -6  914.61 419.668   1
  -4   3   6  974.91 490.085   1
   4  -3  -5  11813. 1649.94   1
  -4  -3   5  10109. 3530.55   1
   4   3  -5  16945. 5746.66   1
  -4   3   5  12048. 1705.38   1
   4  -3  -4  14265. 3068.80   1
   4  -3  -4  15439. 2104.00   1
  -4  -3   4  14245. 1106.84   1
  -4  -3   4  14051. 3708.21   1
   4   3  -4  15026. 1263.86   1
   4   3  -4  24974. 6531.76   1
  -4   3   4  19162. 2560.90   1
  -4   3   4  15318. 3276.40   1
   4  -3  -3 3347.63 690.003   1
   4  -3  -3 3957.10 785.916   1
  -4  -3   3 2986.64 681.909   1
  -4  -3   3 2532.58 564.953   1
   4   3  -3 4552.81 910.562   1
   4   3  -3 4443.54 962.767   1
  -4   3   3 2183.73 532.577   1
   4  -3  -2 1243.62 690.813   1
   4  -3  -2 4512.34 1210.44   1
  -4  -3   2 2903.28 754.350   1
  -4  -3   2 2510.72 488.870   1
   4   3  -2 2074.06 403.885   1
   4   3  -2 3059.08 785.916   1
  -4   3   2 3744.63 1580.33   1
  -4   3   2 2386.89 787.130   1
   4  -3  -1 1988.67 936.057   1
   4  -3  -1 1139.62 776.608   1
  -4  -3   1 1677.46 328.126   1
   4   3  -1 1416.02 274.180   1
  -4   3   1 1421.29 808.579   1
   4  -3   0 6260.62 1948.20   1
   4  -3   0 7049.77 2165.92   1
  -4   3   0 7462.56 2287.74   1
  -4   3   0 7304.73 2264.26   1
   4  -3   1 9813.83 2671.39   1
   4  -3   1 7968.43 2376.36   1
  -4   3  -1  12999. 3617.16   1
  -4   3  -1 8490.48 2296.23   1
   4  -3   2 3916.22 1335.49   1
   4  -3   2 3925.13 1668.55   1
  -4   3  -2 4625.65 1855.52   1
  -4   3  -2 3768.51 1344.39   1
   4  -3   3  793.20 437.474   1
   4  -3   3  514.77 416.430   1
  -4   3  -3  678.67 463.375   1
   4  -4  -6 2175.23 587.211   1
  -4  -4   6 2808.98 651.557   1
  -4  -4   6 4107.64 1184.13   1
   4  -4  -5  664.10 323.148   1
   4  -4  -5 1195.87 394.698   1
  -4  -4   5 1198.70 719.141   1
   4   4  -5  979.76 707.810   1
  -4   4   5  522.06 232.901   1
  -4   4   5  689.60 328.531   1
   4  -4  -4 3660.46 819.910   1
   4  -4  -4 4585.18 790.367   1
  -4  -4   4 4017.40 1546.34   1
   4   4  -4 4342.37 727.640   1
   4   4  -4 1757.18 800.080   1
  -4   4   4 5329.82 866.450   1
  -4   4   4 3882.63 844.192   1
   4  -4  -3 1860.38 633.346   1
  -4  -4   3 1755.97 304.532   1
  -4  -4   3 1565.36 324.565   1
   4   4  -3 1075.68 246.216   1
   4   4  -3 1798.46 357.304   1
  -4   4   3 1692.03 229.745   1
  -4   4   3 2061.11 577.094   1
  -4   4   3 2934.44 885.471   1
   4  -4  -2 8640.22 2663.70   1
   4  -4  -2  10773. 1754.35   1
  -4  -4   2  10716. 1635.77   1
  -4  -4   2 9109.66 1965.60   1
   4   4  -2 9850.25 2113.72   1
   4   4  -2  13019. 1983.41   1
  -4   4   2  10931. 1791.99   1
  -4   4   2  10368. 1406.72   1
  -4   4   2 9854.30 3000.40   1
   4  -4  -1  15492. 4091.46   1
   4  -4  -1 6515.57 2014.97   1
  -4  -4   1  15957. 3026.30   1
  -4  -4   1  13132. 3384.86   1
   4   4  -1  12788. 3300.28   1
   4   4  -1  11651. 2208.01   1
  -4   4   1 5576.68 1751.92   1
  -4   4   1  14982. 3985.43   1
  -4  -4   0  16200. 4140.02   1
  -4   4   0  14270. 3853.90   1
  -4   4   0  16038. 4204.77   1
   4  -4   1 2468.63 1180.49   1
   4  -4   1 2050.58 568.595   1
  -4   4  -1 5184.13 2070.41   1
  -4   4  -1 1750.30 505.463   1
   4  -4   2 2819.50 1000.40   1
   4  -4   2 2946.58 1185.35   1
  -4   4  -2 2606.23 907.324   1
  -4   4  -2 2131.93 1008.90   1
   4  -4   3  431.81 605.018   1
   4  -4   3 1849.86 736.948   1
   4  -5  -5 5018.21 972.075   1
   4   5  -5 5787.12 550.384   1
  -4   5   5 4508.29 845.001   1
  -4   5   5 3166.73 739.376   1
   4  -5  -4 6632.94 1390.93   1
   4  -5  -4 4273.57 958.316   1
  -4  -5   4 5285.30 792.796   1
  -4  -5   4 2792.39 1256.98   1
   4   5  -4 5123.43 813.840   1
  -4   5   4 3942.12 907.729   1
  -4   5   4 4091.46 909.752   1
   4  -5  -3 6418.45 808.579   1
   4  -5  -3 7365.43 1106.03   1
   4  -5  -3 4985.83 1048.97   1
  -4  -5   3 3955.48 893.969   1
  -4  -5   3 5418.85 849.048   1
   4   5  -3 6171.58 1367.06   1
  -4   5   3 5301.49 661.675   1
  -4   5   3 6062.32 940.509   1
  -4   5   3 6641.03 1323.75   1
   4  -5  -2 1827.19 488.870   1
  -4  -5   2 2033.99 515.580   1
  -4  -5   2 1415.22 405.908   1
   4   5  -2 1149.74 319.101   1
   4   5  -2 1928.37 523.674   1
   4   5  -2 1277.62 235.613   1
  -4   5   2 1510.72 330.230   1
  -4   5   2 1906.11 587.211   1
  -4   5   2 1757.18 461.351   1
   4  -5  -1 4787.53 1180.09   1
  -4  -5   1 5038.44 1287.74   1
  -4  -5   1 3492.91 806.555   1
   4   5  -1 4123.83 1047.75   1
   4   5  -1 3444.76 797.247   1
  -4   5   1 6264.66 1498.58   1
   4  -5   0  10320. 3093.89   1
   4  -5   0 1305.95 817.077   1
  -4  -5   0 5422.90 1201.94   1
  -4  -5   0 7211.65 2137.59   1
   4   5   0 4528.53 1390.53   1
  -4   5   0  10121. 3035.61   1
   4  -5   1 4536.62 1516.79   1
   4  -5   1 3825.57 1155.81   1
  -4   5  -1 4957.50 1641.44   1
   4  -5   2  738.97 442.735   1
   4  -5   2 1048.16 679.077   1
  -4   5  -2  447.59 326.264   1
   4  -6  -4  255.81 184.945   1
  -4  -6   4  395.59 143.666   1
  -4   6   4  439.09 339.781   1
  -4   6   4  243.42 176.568   1
   4  -6  -3  843.38 405.503   1
   4  -6  -3  105.42 229.421   1
   4  -6  -3  636.18 167.058   1
  -4  -6   3   39.36 161.594   1
  -4  -6   3  426.14 219.223   1
  -4  -6   3  605.02 226.143   1
   4   6  -3  556.86 232.618   1
   4   6  -3  270.50 283.691   1
  -4   6   3 1526.10 558.883   1
  -4   6   3  325.13 268.636   1
  -4   6   3 1261.43 544.718   1
   4  -6  -2 3002.02 805.341   1
   4  -6  -2 1430.19 632.132   1
   4  -6  -2 1543.91 496.964   1
   4  -6  -2  810.60 208.944   1
  -4  -6   2  718.74 364.548   1
  -4  -6   2 1214.08 446.378   1
   4   6  -2 1059.89 441.117   1
   4   6  -2 1001.62 356.535   1
  -4   6   2 1477.13 264.306   1
  -4   6   2 4200.72 1023.88   1
   4  -6  -1 4743.01 1439.50   1
  -4  -6   1 3166.33 951.031   1
  -4  -6   1 4641.84 1499.80   1
   4   6  -1 4196.68 1343.99   1
   4   6  -1 4245.24 1197.89   1
  -4   6   1 4969.64 1519.63   1
   4  -6   0 3437.88 1186.56   1
   4  -6   0 2095.10 727.640   1
  -4  -6   0 4989.88 1569.40   1
  -4  -6   0 5851.88 1208.82   1
   4   6   0 6191.82 1955.48   1
  -4   6   0  842.57 479.158   1
  -4   6   0 3611.09 1264.26   1
   4  -6   1 4856.33 1752.33   1
  -4   6  -1 1131.52 504.249   1
   4  -7  -2  173.33 102.914   1
   4  -7  -2  462.57 368.879   1
  -4  -7   2  225.01 165.884   1
  -4  -7   2  107.12 201.173   1
   4   7  -2  237.51 138.851   1
  -4   7   2 1018.61 577.903   1
  -4   7   2  358.19 130.919   1
  -4   7   2  331.57 401.659   1
   4  -7  -1 7875.35 2363.82   1
  -4  -7   1 3785.10 1249.70   1
  -4  -7   1 4079.32 1258.60   1
   4   7  -1 4087.41 1323.35   1
  -4   7   1 5252.93 1673.41   1
   5   0  -7  472.68 237.920   1
  -5   0   7  431.00 229.097   1
   5   0  -6  156.21 232.213   1
  -5   0   6  441.52 335.815   1
   5   0  -5 2440.71 529.340   1
   5   0  -4  432.21 267.260   1
   5   0  -4  445.16 185.714   1
  -5   0   4  420.88 273.816   1
  -5   0   4  615.13 177.094   1
   5   0  -3 7345.20 1241.20   1
   5   0  -3 6863.61 1477.54   1
  -5   0   3  10348. 2215.70   1
  -5   0   3 9178.46 1539.46   1
   5   0  -2  17216. 2692.83   1
   5   0  -2  15945. 3405.10   1
   5   0  -2  19935. 5532.17   1
  -5   0   2  14650. 2295.42   1
  -5   0   2  11611. 2481.99   1
  -5   0   2  13468. 3734.52   1
   5   0  -1 2439.90 826.385   1
   5   0  -1 2468.23 857.142   1
  -5   0   1 1653.18 603.399   1
  -5   0   1 3402.26 1101.17   1
   5   0   0 3648.72 1104.81   1
   5   0   0 2783.89 805.746   1
  -5   0   0 2952.24 852.690   1
  -5   0   0 2816.27 888.708   1
   5   0   1 8097.93 2428.97   1
   5   0   1 5131.52 1927.56   1
  -5   0  -1 5487.65 1677.86   1
   5  -1  -6 1492.92 593.686   1
  -5  -1   6 4245.24 1168.76   1
  -5   1   6 2509.91 838.526   1
   5  -1  -5   55.60 139.377   1
  -5  -1   5  107.81 122.906   1
   5   1  -5  133.63 160.947   1
  -5   1   5   66.41 130.311   1
  -5   1   5  206.92 182.517   1
   5  -1  -4 1886.68 346.620   1
   5  -1  -4 1031.16 413.597   1
  -5  -1   4 2118.98 328.773   1
  -5  -1   4 1422.50 468.636   1
   5   1  -4 2095.10 363.253   1
  -5   1   4 1747.06 282.760   1
  -5   1   4 1545.53 520.437   1
   5  -1  -3  25836. 4006.07   1
   5  -1  -3  18895. 2573.45   1
  -5  -1   3  23314. 2904.08   1
  -5  -1   3  27892. 4301.90   1
   5   1  -3  29599. 6317.27   1
   5   1  -3  29717. 4556.85   1
  -5   1   3  27689. 4293.80   1
  -5   1   3  24407. 3006.07   1
   5  -1  -2  20830. 4443.54   1
   5  -1  -2  19385. 3013.76   1
   5  -1  -2  30255. 8377.17   1
  -5  -1   2  20482. 3143.66   1
  -5  -1   2  18737. 4002.02   1
   5   1  -2  22687. 4840.14   1
  -5   1   2  21429. 3314.85   1
  -5   1   2  18600. 3968.03   1
  -5   1   2  25722. 7130.71   1
   5  -1  -1  15451. 4540.67   1
   5  -1  -1  11437. 3321.73   1
  -5  -1   1  29150. 8381.21   1
  -5  -1   1  18110. 3863.61   1
   5   1  -1  17216. 4989.88   1
  -5   1   1  15176. 4297.85   1
  -5   1   1  27454. 8008.90   1
   5  -1   0  26050. 6665.31   1
   5  -1   0  36394. 9433.42   1
  -5  -1   0  21562. 5495.75   1
   5   1   0  33007. 8389.31   1
  -5   1   0  41198.  10526.   1
  -5   1   0  30987. 8021.04   1
   5  -1   1  152.61 265.277   1
   5  -1   1 2380.01 1091.06   1
  -5  -1  -1  121.65 186.281   1
  -5   1  -1 1208.42 529.340   1
   5  -2  -6 3518.41 842.573   1
  -5  -2   6 2668.96 749.493   1
   5   2  -6 7029.54 1431.00   1
  -5   2   6 4419.26 989.882   1
   5  -2  -5  369.28 265.803   1
   5  -2  -5  153.54 197.167   1
  -5  -2   5  683.53 254.512   1
   5   2  -5  685.96 287.414   1
   5   2  -5 6386.07 2169.97   1
  -5   2   5 1591.66 515.176   1
  -5   2   5  418.05 231.202   1
   5  -2  -4  948.60 324.322   1
   5  -2  -4 1193.44 379.158   1
  -5  -2   4 1272.76 370.133   1
   5   2  -4  757.18 231.121   1
  -5   2   4 1663.70 460.137   1
   5  -2  -3 1132.33 475.111   1
  -5  -2   3 1103.20 240.712   1
  -5   2   3 1566.17 285.350   1
  -5   2   3 1545.53 550.384   1
   5  -2  -2  12185. 2307.16   1
   5  -2  -2 5325.77 1555.24   1
   5  -2  -2 5600.97 1553.22   1
   5  -2  -2  11194. 2398.62   1
  -5  -2   2  10045. 1910.56   1
  -5  -2   2  10635. 2211.65   1
   5   2  -2  12234. 2321.73   1
  -5   2   2  11578. 2469.44   1
  -5   2   2 4605.42 1332.66   1
  -5   2   2 8255.76 1565.76   1
   5  -2  -1  19535. 5192.22   1
   5  -2  -1  15836. 4144.07   1
  -5  -2   1  16552. 3133.55   1
   5   2  -1  20409. 3860.38   1
  -5   2   1  14868. 3996.76   1
   5  -2   0 6102.79 1405.10   1
   5  -2   0 6017.80 2303.11   1
  -5  -2   0 5034.39 1097.13   1
  -5   2   0 3669.77 912.585   1
   5  -2   1 1182.52 768.514   1
   5  -2   1 1271.55 554.836   1
  -5   2  -1  923.11 668.959   1
   5  -2   2   95.10 238.082   1
   5  -2   2  379.24 389.397   1
   5  -3  -6  787.13 308.943   1
  -5  -3   6  646.30 469.040   1
  -5   3   6 1205.58 373.775   1
   5  -3  -5 1004.86 439.093   1
   5  -3  -5 2098.34 694.860   1
  -5  -3   5 1473.09 315.378   1
   5   3  -5 1547.55 394.051   1
  -5   3   5  456.90 297.774   1
  -5   3   5 1553.62 612.302   1
   5  -3  -4 8106.02 1164.71   1
   5  -3  -4 6863.61 1374.75   1
   5   3  -4 2828.41 1065.96   1
   5   3  -4 5418.85 925.131   1
  -5   3   4 6402.26 851.881   1
  -5   3   4 7025.49 1396.60   1
   5  -3  -3  18745. 3260.62   1
  -5  -3   3  17127. 2876.16   1
  -5  -3   3  17904. 4516.39   1
   5   3  -3  18231. 4589.23   1
   5   3  -3  15662. 2633.75   1
  -5   3   3  14298. 2549.98   1
   5  -3  -2 3142.04 819.101   1
   5  -3  -2 4330.23 1091.46   1
   5  -3  -2 2682.31 604.613   1
  -5  -3   2 3332.25 863.617   1
  -5  -3   2 3350.46 631.727   1
   5   3  -2 5560.50 1411.57   1
  -5   3   2 1959.12 499.797   1
  -5   3   2 3360.98 708.619   1
  -5   3   2 3852.69 951.436   1
  -5   3   2 2693.24 901.254   1
   5  -3  -1 6968.83 2561.31   1
   5  -3  -1  10453. 2335.49   1
  -5  -3   1  11967. 3013.35   1
   5   3  -1 9526.50 2397.41   1
  -5   3   1 8555.23 1947.79   1
  -5   3   1  11611. 4055.03   1
   5  -3   0 7486.84 2309.59   1
   5  -3   0  10907. 3930.79   1
   5  -3   1 1475.11 825.171   1
   5  -3   1  696.07 365.034   1
  -5   3  -1 1925.13 663.698   1
   5  -3   2 1526.10 628.490   1
   5  -4  -5 1522.46 486.442   1
   5  -4  -5 1051.40 350.829   1
  -5  -4   5 1205.58 227.438   1
   5   4  -5 1097.94 242.614   1
  -5   4   5 1010.52 333.104   1
  -5   4   5 1612.30 515.985   1
   5  -4  -4  900.85 419.263   1
  -5  -4   4 1799.67 390.611   1
   5   4  -4 2031.97 758.801   1
   5   4  -4 1671.39 388.911   1
  -5   4   4 1155.40 455.686   1
  -5   4   4 1910.16 736.543   1
  -5   4   4 1365.84 265.317   1
   5  -4  -3  904.49 314.731   1
   5  -4  -3  163.74 211.291   1
  -5  -4   3  -28.51 122.541   1
  -5  -4   3  400.73 157.547   1
   5   4  -3  142.98  91.946   1
   5   4  -3  263.33 130.797   1
  -5   4   3   55.93 191.704   1
  -5   4   3  262.48 183.650   1
   5  -4  -2 4192.63 1448.00   1
   5  -4  -2 2158.64 549.575   1
   5  -4  -2 3844.59 842.168   1
  -5  -4   2 2411.57 557.668   1
   5   4  -2 2742.61 617.968   1
  -5   4   2 3176.85 1143.67   1
  -5   4   2 2259.00 554.836   1
   5  -4  -1  15382. 4540.67   1
   5  -4  -1 4965.60 1942.94   1
  -5  -4   1  16046. 3515.98   1
   5   4  -1  19421. 5495.75   1
   5   4  -1  13695. 2995.55   1
  -5   4   1  16487. 4848.23   1
   5  -4   0 5892.35 1678.27   1
   5  -4   0 6458.92 2029.14   1
  -5   4   0 5471.46 1778.63   1
  -5   4   0  10129. 2775.80   1
   5  -4   1  193.57 245.204   1
   5  -4   1  370.74 407.932   1
   5  -5  -4 3093.48 687.575   1
  -5  -5   4 3323.75 428.166   1
   5   5  -4 2444.35 373.897   1
   5   5  -4 3784.70 792.391   1
  -5   5   4 3068.80 332.335   1
  -5   5   4 3674.62 749.089   1
  -5   5   4 5224.60 1107.65   1
   5  -5  -3 6268.71 1150.55   1
  -5  -5   3 4783.48 1016.19   1
   5   5  -3 5301.49 1102.79   1
   5   5  -3 4022.66 658.842   1
  -5   5   3 5269.12 1002.43   1
  -5   5   3 7033.58 636.988   1
   5  -5  -2  135.53 182.436   1
   5  -5  -2  700.93 411.574   1
  -5  -5   2  876.57 337.474   1
   5   5  -2  858.76 309.308   1
   5   5  -2  312.99 212.586   1
  -5   5   2  233.27 197.936   1
  -5   5   2  305.14 326.952   1
   5  -5  -1 3087.82 940.509   1
   5  -5  -1 6766.48 2222.98   1
  -5  -5   1 3789.56 1153.78   1
   5   5  -1 3815.05 1153.38   1
   5   5  -1 3163.90 658.033   1
  -5   5   1 4658.03 1580.33   1
  -5  -5   0  634.16 284.257   1
  -5   5   0  349.09 319.263   1
   5  -6  -2  396.76 430.594   1
   5  -6  -2  338.65 314.245   1
  -5  -6   2  310.24 250.101   1
   5   6  -2  550.79 307.567   1
   5   6  -2  402.23 187.171   1
  -5   6   2  374.22 411.169   1
  -5   6   2  618.37 450.829   1
  -5   6   2  311.13 104.371   1
   6   0  -6  636.99 244.880   1
   6   0  -5  795.63 285.147   1
  -6   0   5  554.43 224.524   1
  -6   0   5  785.51 246.621   1
   6   0  -4  104.09 169.850   1
   6   0  -4  155.85 179.725   1
  -6   0   4  399.15 220.073   1
  -6   0   4  799.68 308.094   1
   6   0  -3 2118.57 483.205   1
   6   0  -3 3331.04 715.094   1
   6   0  -3 5123.43 1772.56   1
  -6   0   3 2720.35 643.868   1
  -6   0   3 3912.58 1384.86   1
   6   0  -2 1624.44 747.875   1
   6   0  -2  619.18 155.605   1
  -6   0   2  566.57 147.147   1
  -6   0   2  749.90 427.762   1
   6   0  -1  898.83 599.352   1
   6   0  -1  623.63 299.190   1
  -6   0   1  718.74 448.806   1
  -6   0   1  486.85 287.414   1
   6   0   0  529.74 402.752   1
   6   0   0  192.15 188.223   1
  -6   0   0  524.08 386.119   1
   6   0   1 2420.88 798.057   1
  -6  -1   6 4204.77 589.639   1
   6   1  -6 5572.64 770.133   1
  -6   1   6 4892.75 962.767   1
   6  -1  -5  148.04 150.951   1
   6  -1  -5  354.31 152.570   1
  -6  -1   5  217.85 111.534   1
  -6  -1   5  521.65 197.086   1
   6   1  -5  217.20 130.676   1
  -6   1   5  316.67 191.825   1
   6  -1  -4 2532.58 518.008   1
   6  -1  -4 2491.70 732.496   1
  -6  -1   4 3573.45 874.139   1
  -6  -1   4 2795.63 497.369   1
   6   1  -4 1983.81 454.471   1
   6   1  -4 2242.41 611.493   1
  -6   1   4 2794.82 796.438   1
  -6   1   4 3395.38 535.006   1
   6  -1  -3  965.60 309.834   1
   6  -1  -3  571.02 155.929   1
   6  -1  -3  646.30 470.659   1
  -6  -1   3  488.87 242.088   1
   6   1  -3  859.97 288.830   1
   6   1  -3  733.31 193.403   1
   6   1  -3  386.73 266.936   1
  -6   1   3 1094.29 372.561   1
  -6   1   3 1012.95 246.823   1
  -6   1   3 1516.79 668.150   1
   6  -1  -2 1586.40 608.660   1
   6  -1  -2 2121.00 970.456   1
   6  -1  -2 2947.39 652.772   1
   6   1  -2 2771.75 618.777   1
  -6   1   2 2106.84 469.850   1
  -6   1   2 4075.27 1538.24   1
   6  -1  -1  560.10 283.529   1
   6  -1  -1 1736.95 771.347   1
  -6  -1   1  916.63 354.431   1
   6   1  -1  760.82 296.965   1
  -6   1   1  855.52 445.163   1
  -6   1   1 1294.62 487.252   1
   6  -1   0 1513.15 579.927   1
   6  -1   0  780.25 384.783   1
  -6  -1   0  776.61 317.037   1
   6   1   0  876.16 368.433   1
   6  -1   1 2138.81 787.130   1
   6   1   1 1256.58 442.331   1
   6  -2  -5 2175.64 513.557   1
  -6  -2   5 3075.67 403.116   1
  -6  -2   5 3450.42 893.969   1
   6   2  -5 3683.12 478.348   1
   6   2  -5 3226.63 825.576   1
  -6   2   5 2403.07 315.742   1
  -6   2   5 1975.72 484.014   1
   6  -2  -4  377.01 285.633   1
   6  -2  -4  399.76 213.152   1
  -6  -2   4  323.92 220.963   1
  -6  -2   4  387.01 201.861   1
   6   2  -4  472.68 205.706   1
  -6   2   4  598.95 364.387   1
  -6   2   4  462.57 204.573   1
   6  -2  -3 2977.33 961.148   1
   6  -2  -3 3562.52 872.925   1
  -6  -2   3 3180.09 779.441   1
   6   2  -3 3064.75 1003.24   1
  -6   2   3 2824.76 790.772   1
  -6   2   3 4625.65 1476.73   1
   6  -2  -2 1044.92 549.575   1
   6  -2  -2 1101.58 362.565   1
   6   2  -2  486.44 192.594   1
  -6   2   2  622.42 214.366   1
  -6   2   2  557.67 398.583   1
   6  -2  -1 1911.77 875.353   1
   6   2  -1  911.37 298.138   1
  -6   2   1 1453.66 681.909   1
   6  -2   0 2050.99 775.799   1
  -6  -2   0 1948.20 632.537   1
   6   2   0 2101.17 685.552   1
   6  -3  -5  834.48 640.226   1
  -6  -3   5 1263.86 338.446   1
   6   3  -5 1312.02 386.483   1
  -6   3   5  911.37 718.332   1
   6  -3  -4 1118.98 359.490   1
  -6  -3   4 1370.70 278.794   1
  -6  -3   4  865.64 248.523   1
   6   3  -4 1020.23 248.523   1
   6   3  -4 1180.49 264.872   1
  -6   3   4 1035.21 378.389   1
   6  -3  -3 2129.90 603.804   1
   6  -3  -3 1387.29 298.543   1
  -6  -3   3 2499.80 623.229   1
   6   3  -3 2391.34 511.938   1
  -6   3   3 2459.73 732.901   1
   6  -3  -2 6276.81 2043.30   1
   6  -3  -2 2459.33 888.303   1
   6   3  -2 3532.57 734.520   1
  -6   3   2 4649.93 953.055   1
   6  -3  -1  395.71 327.276   1
   6  -3  -1  474.71 323.958   1
   6  -3   0 1108.46 495.750   1
   6  -4  -4 1004.05 745.042   1
  -6  -4   4 1562.93 432.618   1
  -6  -4   4 1166.33 563.739   1
   6   4  -4  979.76 336.301   1
   6   4  -4 1532.98 530.149   1
  -6   4   4 1607.44 983.002   1
   6  -4  -3 2785.51 1275.60   1
   6  -4  -3  543.10 363.415   1
  -6  -4   3 3623.63 1394.17   1
   6   4  -3 3030.35 1002.43   1
  -6   4   3 2919.06 1411.17   1
   6  -4  -2  651.56 428.571   1
   6  -4  -2  311.09 382.476   1
   6   4  -2  394.46 162.970   1
  -6   4   2  533.39 177.337   1
  -6   4   2  351.40 488.061   1
   6  -4  -1 2244.84 807.365   1
   6   4  -1 2338.32 761.230   1
   7   0  -3 1477.13 501.821   1
  -7   0   3 1503.44 577.498   1
  -7   0   3  962.36 582.759   1
   7   0  -2 4354.51 1278.43   1
   7   0  -2 8429.78 2697.29   1
   7   0  -2 4908.94 1646.30   1
  -7   0   2 4229.05 1412.79   1
   7  -1  -3  671.79 409.955   1
   7  -1  -3  238.49 133.792   1
  -7  -1   3  443.95 370.902   1
   7   1  -3  298.91 151.598   1
   7   1  -3  282.56 256.212   1
  -7   1   3 1107.24 521.246   1
  -7   1   3  291.50 341.198   1
   0   0   0      0.    0.00   0
;
_shelx_hkl_checksum              3452
loop_
_space_group_symop_operation_xyz
'x, y, z'
'-x, y+1/2, -z'
loop_
_atom_site_label
_atom_site_type_symbol
_atom_site_fract_x
_atom_site_fract_y
_atom_site_fract_z
_atom_site_U_iso_or_equiv
_atom_site_adp_type
_atom_site_occupancy
_atom_site_site_symmetry_order
_atom_site_calc_flag
_atom_site_refinement_flags_posn
N1 N -0.1483(10) 0.4346(8) 0.2359(11) 0.0101(13) Uani 1 1 d .
H1 H -0.155(3) 0.468(3) 0.032(4) 0.010(6) Uiso 1 1 calc R
H2 H -0.169(3) 0.257(3) 0.260(5) 0.020(7) Uiso 1 1 calc R
H3 H 0.059(4) 0.492(3) 0.388(4) 0.052(15) Uiso 1 1 calc R
C1 C -0.3846(12) 0.5482(9) 0.2721(13) 0.0124(14) Uani 1 1 d .
H4 H -0.594(7) 0.474(3) 0.135(4) 0.066(19) Uiso 1 1 calc R
H5 H -0.3840(12) 0.724(5) 0.213(2) 0.021(8) Uiso 1 1 calc R
C2 C -0.3642(12) 0.5367(8) 0.5596(14) 0.0099(14) Uani 1 1 d .
O1 O -0.1195(10) 0.5095(9) 0.7419(9) 0.0126(13) Uani 1 1 d .
O2 O -0.5910(9) 0.5644(8) 0.5990(11) 0.0127(12) Uani 1 1 d .
loop_
_atom_site_aniso_label
_atom_site_aniso_U_11
_atom_site_aniso_U_22
_atom_site_aniso_U_33
_atom_site_aniso_U_23
_atom_site_aniso_U_13
_atom_site_aniso_U_12
N1 0.009(2) 0.011(2) 0.013(3) -0.004(2) 0.007(2) -0.002(2)
C1 0.011(3) 0.012(3) 0.016(3) 0.002(3) 0.007(3) 0.001(3)
C2 0.010(3) 0.012(3) 0.013(3) 0.000(3) 0.009(3) 0.000(2)
O1 0.004(2) 0.025(3) 0.010(3) 0.003(2) 0.004(2) 0.0002(17)
O2 0.006(2) 0.015(2) 0.020(3) -0.005(2) 0.008(2) -0.0014(17)
loop_
_atom_type_symbol
_atom_type_description
_atom_type_scat_dispersion_real
_atom_type_scat_dispersion_imag
_atom_type_scat_source
C C 0.0000 0.0000 'International Tables Vol C Tables 4.2.6.8 and 6.1.1.4'
H H 0.0000 0.0000 'International Tables Vol C Tables 4.2.6.8 and 6.1.1.4'
N N 0.0000 0.0000 'International Tables Vol C Tables 4.2.6.8 and 6.1.1.4'
O O 0.0000 0.0000 'International Tables Vol C Tables 4.2.6.8 and 6.1.1.4'
loop_
_geom_angle_atom_site_label_1
_geom_angle_atom_site_label_2
_geom_angle_atom_site_label_3
_geom_angle
N1 C1 C2 112.4(5)
O2 C2 O1 124.6(6)
O2 C2 C1 117.7(6)
O1 C2 C1 117.7(4)
loop_
_geom_bond_atom_site_label_1
_geom_bond_atom_site_label_2
_geom_bond_distance
N1 C1 1.535(6)
C1 C2 1.600(9)
C2 O2 1.320(6)
C2 O1 1.323(8)
